Co16 H34 O32                            
   1.0000000000000000     
     6.3807491263412546    0.0000000000000000    0.0000000000000004
    -3.1903745631706255    5.5258908385868901    0.0000000000000004
     0.0000000000000000    0.0000000000000000   36.3629544850248649
  Co              H               O             
    16    34    32
Selective dynamics
Direct
  0.0000000000000000  0.0000000000000000  0.3125000000000000   F   F   F
  0.0000000000000000  0.5000000000000000  0.3125000000000000   F   F   F
  0.5000000000000000  0.0000000000000000  0.3125000000000000   F   F   F
  0.5000000000000000  0.5000000000000000  0.3125000000000000   F   F   F
  0.0000000000000000  0.0000000000000000  0.4375000000000000   F   F   F
  0.0000000000000000  0.5000000000000000  0.4375000000000000   F   F   F
  0.5000000000000000  0.0000000000000000  0.4375000000000000   F   F   F
  0.5000000000000000  0.5000000000000000  0.4375000000000000   F   F   F
  0.9999867173118610  0.9999045664557248  0.5625192169010675   T   T   T
  0.9999667294235940  0.4999697000929416  0.5625092919458319   T   T   T
  0.4999895114102613  0.9999504870074480  0.5624674484634212   T   T   T
  0.5000829022882545  0.4999483287855909  0.5624835444076745   T   T   T
  0.0064306152289442  0.9892262618907315  0.6835670954545158   T   T   T
  0.9964842992885026  0.5071626151903472  0.6854192698809640   T   T   T
  0.4764417217239157  0.0021953247949118  0.6846067773052442   T   T   T
  0.5158386701640675  0.5078794722254467  0.6835319425567494   T   T   T
  0.3333333333333357  0.1666666666666643  0.2569681620582500   F   F   F
  0.3333333333333357  0.6666666666666643  0.2569681620582500   F   F   F
  0.8333333333333357  0.1666666666666643  0.2569681620582500   F   F   F
  0.8333333333333357  0.6666666666666643  0.2569681620582500   F   F   F
  0.1666666666666643  0.3333333333333357  0.3680318379417500   F   F   F
  0.1666666666666643  0.8333333333333357  0.3680318379417500   F   F   F
  0.6666666666666643  0.3333333333333357  0.3680318379417500   F   F   F
  0.6666666666666643  0.8333333333333357  0.3680318379417500   F   F   F
  0.3333333333333357  0.1666666666666643  0.3819681620582500   F   F   F
  0.3333333333333357  0.6666666666666643  0.3819681620582500   F   F   F
  0.8333333333333357  0.1666666666666643  0.3819681620582500   F   F   F
  0.8333333333333357  0.6666666666666643  0.3819681620582500   F   F   F
  0.1666666666666643  0.3333333333333357  0.4930318379417500   F   F   F
  0.1666666666666643  0.8333333333333357  0.4930318379417500   F   F   F
  0.6666666666666643  0.3333333333333357  0.4930318379417500   F   F   F
  0.6666666666666643  0.8333333333333357  0.4930318379417500   F   F   F
  0.3337027321672011  0.1669162815303550  0.5071520087600151   T   T   T
  0.3334510676665662  0.6669459947619342  0.5070885083564313   T   T   T
  0.8341669257970250  0.1671988454056243  0.5071799319137370   T   T   T
  0.8342061668613491  0.6670835968577608  0.5071029379765088   T   T   T
  0.1657793418067010  0.3327059579762762  0.6180071326145529   T   T   T
  0.1654383742172247  0.8326154047747719  0.6179000185029723   T   T   T
  0.6668829977690951  0.3335517452897054  0.6180408785181138   T   T   T
  0.6666860861757105  0.8329322665614720  0.6179476007063689   T   T   T
  0.3321789583771726  0.1672699242085899  0.6312403555454231   T   T   T
  0.3337687256100504  0.6664874318478607  0.6323714616840564   T   T   T
  0.8334300371286140  0.1654386504080196  0.6323751165197142   T   T   T
  0.8333441317478836  0.6666534921063078  0.6315914486690190   T   T   T
  0.1658426039102365  0.3357550800203055  0.7450445312187310   T   T   T
  0.1668822508998855  0.8329902103259692  0.7430087255786887   T   T   T
  0.6663351064996118  0.3331579621656267  0.7428041725034628   T   T   T
  0.6654495538683342  0.8307539587755505  0.7451301478905534   T   T   T
  0.2509473261705384  0.2425270307225666  0.7105020088464058   T   T   T
  0.7605449663095873  0.0075187769854239  0.7106207316724694   T   T   T
  0.3333333333333357  0.1666666666666643  0.2837579574645943   F   F   F
  0.3333333333333357  0.6666666666666643  0.2837579574645943   F   F   F
  0.8333333333333357  0.1666666666666643  0.2837579574645943   F   F   F
  0.8333333333333357  0.6666666666666643  0.2837579574645943   F   F   F
  0.1666666666666643  0.3333333333333357  0.3412420425354057   F   F   F
  0.1666666666666643  0.8333333333333357  0.3412420425354057   F   F   F
  0.6666666666666643  0.3333333333333357  0.3412420425354057   F   F   F
  0.6666666666666643  0.8333333333333357  0.3412420425354057   F   F   F
  0.3333333333333357  0.1666666666666643  0.4087579574645943   F   F   F
  0.3333333333333357  0.6666666666666643  0.4087579574645943   F   F   F
  0.8333333333333357  0.1666666666666643  0.4087579574645943   F   F   F
  0.8333333333333357  0.6666666666666643  0.4087579574645943   F   F   F
  0.1666666666666643  0.3333333333333357  0.4662420425354057   F   F   F
  0.1666666666666643  0.8333333333333357  0.4662420425354057   F   F   F
  0.6666666666666643  0.3333333333333357  0.4662420425354057   F   F   F
  0.6666666666666643  0.8333333333333357  0.4662420425354057   F   F   F
  0.3337081945290102  0.1677408294369509  0.5339581272348782   T   T   T
  0.3334714715585427  0.6667563332473920  0.5338679724650076   T   T   T
  0.8354287032505414  0.1677184186715514  0.5340138415973749   T   T   T
  0.8337869300474804  0.6668893219530342  0.5339522703462608   T   T   T
  0.1663538827432178  0.3332440985777548  0.5911205945587344   T   T   T
  0.1649266887828386  0.8322943731459365  0.5910125481714968   T   T   T
  0.6664824956589569  0.3329406498528280  0.5911778708733547   T   T   T
  0.6662682833989880  0.8323234723946888  0.5911078876357907   T   T   T
  0.3355531269816902  0.1717298144086150  0.6578107472281771   T   T   T
  0.3352585460097020  0.6710933446164997  0.6591707637715292   T   T   T
  0.8297120692185784  0.1659930238128926  0.6592835251094292   T   T   T
  0.8329423578082535  0.6611434092207576  0.6581873598640281   T   T   T
  0.1676342135446342  0.3344975861602539  0.7182441022315447   T   T   T
  0.1672640372003913  0.8315264173402458  0.7161520959184479   T   T   T
  0.6649305940652855  0.3263915250602136  0.7160179058089833   T   T   T
  0.6651022445658851  0.8362745962891831  0.7185424244621781   T   T   T

  0.00000000E+00  0.00000000E+00  0.00000000E+00
  0.00000000E+00  0.00000000E+00  0.00000000E+00
  0.00000000E+00  0.00000000E+00  0.00000000E+00
  0.00000000E+00  0.00000000E+00  0.00000000E+00
  0.00000000E+00  0.00000000E+00  0.00000000E+00
  0.00000000E+00  0.00000000E+00  0.00000000E+00
  0.00000000E+00  0.00000000E+00  0.00000000E+00
  0.00000000E+00  0.00000000E+00  0.00000000E+00
  0.00000000E+00  0.00000000E+00  0.00000000E+00
  0.00000000E+00  0.00000000E+00  0.00000000E+00
  0.00000000E+00  0.00000000E+00  0.00000000E+00
  0.00000000E+00  0.00000000E+00  0.00000000E+00
  0.00000000E+00  0.00000000E+00  0.00000000E+00
  0.00000000E+00  0.00000000E+00  0.00000000E+00
  0.00000000E+00  0.00000000E+00  0.00000000E+00
  0.00000000E+00  0.00000000E+00  0.00000000E+00
  0.00000000E+00  0.00000000E+00  0.00000000E+00
  0.00000000E+00  0.00000000E+00  0.00000000E+00
  0.00000000E+00  0.00000000E+00  0.00000000E+00
  0.00000000E+00  0.00000000E+00  0.00000000E+00
  0.00000000E+00  0.00000000E+00  0.00000000E+00
  0.00000000E+00  0.00000000E+00  0.00000000E+00
  0.00000000E+00  0.00000000E+00  0.00000000E+00
  0.00000000E+00  0.00000000E+00  0.00000000E+00
  0.00000000E+00  0.00000000E+00  0.00000000E+00
  0.00000000E+00  0.00000000E+00  0.00000000E+00
  0.00000000E+00  0.00000000E+00  0.00000000E+00
  0.00000000E+00  0.00000000E+00  0.00000000E+00
  0.00000000E+00  0.00000000E+00  0.00000000E+00
  0.00000000E+00  0.00000000E+00  0.00000000E+00
  0.00000000E+00  0.00000000E+00  0.00000000E+00
  0.00000000E+00  0.00000000E+00  0.00000000E+00
  0.00000000E+00  0.00000000E+00  0.00000000E+00
  0.00000000E+00  0.00000000E+00  0.00000000E+00
  0.00000000E+00  0.00000000E+00  0.00000000E+00
  0.00000000E+00  0.00000000E+00  0.00000000E+00
  0.00000000E+00  0.00000000E+00  0.00000000E+00
  0.00000000E+00  0.00000000E+00  0.00000000E+00
  0.00000000E+00  0.00000000E+00  0.00000000E+00
  0.00000000E+00  0.00000000E+00  0.00000000E+00
  0.00000000E+00  0.00000000E+00  0.00000000E+00
  0.00000000E+00  0.00000000E+00  0.00000000E+00
  0.00000000E+00  0.00000000E+00  0.00000000E+00
  0.00000000E+00  0.00000000E+00  0.00000000E+00
  0.00000000E+00  0.00000000E+00  0.00000000E+00
  0.00000000E+00  0.00000000E+00  0.00000000E+00
  0.00000000E+00  0.00000000E+00  0.00000000E+00
  0.00000000E+00  0.00000000E+00  0.00000000E+00
  0.00000000E+00  0.00000000E+00  0.00000000E+00
  0.00000000E+00  0.00000000E+00  0.00000000E+00
  0.00000000E+00  0.00000000E+00  0.00000000E+00
  0.00000000E+00  0.00000000E+00  0.00000000E+00
  0.00000000E+00  0.00000000E+00  0.00000000E+00
  0.00000000E+00  0.00000000E+00  0.00000000E+00
  0.00000000E+00  0.00000000E+00  0.00000000E+00
  0.00000000E+00  0.00000000E+00  0.00000000E+00
  0.00000000E+00  0.00000000E+00  0.00000000E+00
  0.00000000E+00  0.00000000E+00  0.00000000E+00
  0.00000000E+00  0.00000000E+00  0.00000000E+00
  0.00000000E+00  0.00000000E+00  0.00000000E+00
  0.00000000E+00  0.00000000E+00  0.00000000E+00
  0.00000000E+00  0.00000000E+00  0.00000000E+00
  0.00000000E+00  0.00000000E+00  0.00000000E+00
  0.00000000E+00  0.00000000E+00  0.00000000E+00
  0.00000000E+00  0.00000000E+00  0.00000000E+00
  0.00000000E+00  0.00000000E+00  0.00000000E+00
  0.00000000E+00  0.00000000E+00  0.00000000E+00
  0.00000000E+00  0.00000000E+00  0.00000000E+00
  0.00000000E+00  0.00000000E+00  0.00000000E+00
  0.00000000E+00  0.00000000E+00  0.00000000E+00
  0.00000000E+00  0.00000000E+00  0.00000000E+00
  0.00000000E+00  0.00000000E+00  0.00000000E+00
  0.00000000E+00  0.00000000E+00  0.00000000E+00
  0.00000000E+00  0.00000000E+00  0.00000000E+00
  0.00000000E+00  0.00000000E+00  0.00000000E+00
  0.00000000E+00  0.00000000E+00  0.00000000E+00
  0.00000000E+00  0.00000000E+00  0.00000000E+00
  0.00000000E+00  0.00000000E+00  0.00000000E+00
  0.00000000E+00  0.00000000E+00  0.00000000E+00
  0.00000000E+00  0.00000000E+00  0.00000000E+00
  0.00000000E+00  0.00000000E+00  0.00000000E+00
  0.00000000E+00  0.00000000E+00  0.00000000E+00
