Co3 Ni1 H4 O8                           
   1.0000000000000000     
     5.3980890651739992   -0.0671297172043899    7.5653903469050041
     2.3633257461526771    4.8537159845354294    7.5653903743035738
    -0.0441395682135647   -0.0272205030965205    4.6750479689073901
  Co              Ni              H               O             
     3     1     4     8
Direct
  0.0000000000000000  0.5000000000000000  0.0000000000000000
  0.5000000000000000  0.0000000000000000  0.0000000000000000
  0.5000000000000000  0.5000000000000000  0.0000000000000000
  0.0000000000000000  0.0000000000000000  0.0000000000000000
  0.2514293647003545  0.2514293647029117  0.4750832918503276
  0.2630279254376084  0.7369720745613105  0.5000000000046974
  0.7369720745623916  0.2630279254386892  0.4999999999953025
  0.7485706352996456  0.7485706352970881  0.5249167081496725
  0.2113098793240574  0.2113098793201523  0.3788927147143877
  0.2128168689359933  0.6927542278276526  0.4130027254645571
  0.6927542278188428  0.2128168689343115  0.4130027254814922
  0.7044833777676878  0.7044833777726046  0.4016568488602243
  0.2955166222323121  0.2955166222273956  0.5983431511397755
  0.3072457721811575  0.7871831310656884  0.5869972745185078
  0.7871831310640066  0.3072457721723473  0.5869972745354430
  0.7886901206759427  0.7886901206798477  0.6211072852856123

  0.00000000E+00  0.00000000E+00  0.00000000E+00
  0.00000000E+00  0.00000000E+00  0.00000000E+00
  0.00000000E+00  0.00000000E+00  0.00000000E+00
  0.00000000E+00  0.00000000E+00  0.00000000E+00
  0.00000000E+00  0.00000000E+00  0.00000000E+00
  0.00000000E+00  0.00000000E+00  0.00000000E+00
  0.00000000E+00  0.00000000E+00  0.00000000E+00
  0.00000000E+00  0.00000000E+00  0.00000000E+00
  0.00000000E+00  0.00000000E+00  0.00000000E+00
  0.00000000E+00  0.00000000E+00  0.00000000E+00
  0.00000000E+00  0.00000000E+00  0.00000000E+00
  0.00000000E+00  0.00000000E+00  0.00000000E+00
  0.00000000E+00  0.00000000E+00  0.00000000E+00
  0.00000000E+00  0.00000000E+00  0.00000000E+00
  0.00000000E+00  0.00000000E+00  0.00000000E+00
  0.00000000E+00  0.00000000E+00  0.00000000E+00
