Co H  O 
 1.0000000000000000
     6.3807491263412546    0.0000000000000000    0.0000000000000004
    -3.1903745631706255    5.5258908385868901    0.0000000000000004
     0.0000000000000000    0.0000000000000000   36.3629544850248649
 Co  H   O  
  16  32  32
Selective dynamics
Direct
  0.0000000000000000  0.0000000000000000  0.3125000000000000   F   F   F
  0.0000000000000000  0.5000000000000000  0.3125000000000000   F   F   F
  0.4999999999999999  0.0000000000000000  0.3125000000000000   F   F   F
  0.4999999999999999  0.5000000000000000  0.3125000000000000   F   F   F
  0.0000000000000000  0.0000000000000000  0.4375000000000000   F   F   F
  0.0000000000000000  0.5000000000000000  0.4375000000000000   F   F   F
  0.4999999999999999  0.0000000000000000  0.4375000000000000   F   F   F
  0.4999999999999999  0.5000000000000000  0.4375000000000000   F   F   F
  0.9999102780427164  0.9998373168856615  0.5624760680132918   T   T   T
  0.0000442640082629  0.4999638867084387  0.5624150348655815   T   T   T
  0.5000963510130912  0.0001821100811360  0.5624580594969288   T   T   T
  0.4998664677426488  0.5000493818540334  0.5624477064941680   T   T   T
  0.9999022316244238  0.9999835199925012  0.6876431290621083   T   T   T
  0.9999213572030660  0.4999843623937417  0.6876738217061173   T   T   T
  0.4999385000828401  0.9998169102054557  0.6875539392183412   T   T   T
  0.4999046019370101  0.4998226158180957  0.6875847376512255   T   T   T
  0.3333333333333357  0.1666666666666643  0.2569681620582500   F   F   F
  0.3333333333333357  0.6666666666666643  0.2569681620582500   F   F   F
  0.8333333333333357  0.1666666666666643  0.2569681620582500   F   F   F
  0.8333333333333357  0.6666666666666643  0.2569681620582500   F   F   F
  0.1666666666666643  0.3333333333333357  0.3680318379417500   F   F   F
  0.1666666666666643  0.8333333333333356  0.3680318379417500   F   F   F
  0.6666666666666643  0.3333333333333357  0.3680318379417500   F   F   F
  0.6666666666666643  0.8333333333333356  0.3680318379417500   F   F   F
  0.3333333333333357  0.1666666666666643  0.3819681620582500   F   F   F
  0.3333333333333357  0.6666666666666643  0.3819681620582500   F   F   F
  0.8333333333333357  0.1666666666666643  0.3819681620582500   F   F   F
  0.8333333333333357  0.6666666666666643  0.3819681620582500   F   F   F
  0.1666666666666643  0.3333333333333357  0.4930318379417499   F   F   F
  0.1666666666666643  0.8333333333333356  0.4930318379417499   F   F   F
  0.6666666666666643  0.3333333333333357  0.4930318379417499   F   F   F
  0.6666666666666643  0.8333333333333356  0.4930318379417499   F   F   F
  0.3351269618741572  0.1693068349890188  0.5073369047833428   T   T   T
  0.3355485817704673  0.6690354994706704  0.5072965994596362   T   T   T
  0.8346027631356218  0.1708396878885274  0.5068001957160203   T   T   T
  0.8346409199123463  0.6714927935021713  0.5068283748666840   T   T   T
  0.1654134869752881  0.3296356036619945  0.6181328262375630   T   T   T
  0.1648578036210239  0.8278614943013249  0.6181572371419947   T   T   T
  0.6650768277879385  0.3319818936512377  0.6176153367959961   T   T   T
  0.6641415343469538  0.8303727247428364  0.6176578878343811   T   T   T
  0.3316107335602435  0.1652229124577412  0.6324016439729850   T   T   T
  0.3310183662521197  0.6639541400268516  0.6320752833463774   T   T   T
  0.8309193579814780  0.1675180737102348  0.6321645673863133   T   T   T
  0.8352408737501866  0.6713939288592605  0.6318906360892989   T   T   T
  0.1661794250510190  0.3285335460928877  0.7430653404889098   T   T   T
  0.1707596739044930  0.8327597506784910  0.7427499373720583   T   T   T
  0.6670308381540954  0.3342123869180586  0.7427743990725603   T   T   T
  0.6668023130833344  0.8333542061219503  0.7424126724033000   T   T   T
  0.3333333333333357  0.1666666666666643  0.2837579574645943   F   F   F
  0.3333333333333357  0.6666666666666643  0.2837579574645943   F   F   F
  0.8333333333333357  0.1666666666666643  0.2837579574645943   F   F   F
  0.8333333333333357  0.6666666666666643  0.2837579574645943   F   F   F
  0.1666666666666643  0.3333333333333357  0.3412420425354057   F   F   F
  0.1666666666666643  0.8333333333333356  0.3412420425354057   F   F   F
  0.6666666666666643  0.3333333333333357  0.3412420425354057   F   F   F
  0.6666666666666643  0.8333333333333356  0.3412420425354057   F   F   F
  0.3333333333333357  0.1666666666666643  0.4087579574645943   F   F   F
  0.3333333333333357  0.6666666666666643  0.4087579574645943   F   F   F
  0.8333333333333357  0.1666666666666643  0.4087579574645943   F   F   F
  0.8333333333333357  0.6666666666666643  0.4087579574645943   F   F   F
  0.1666666666666643  0.3333333333333357  0.4662420425354056   F   F   F
  0.1666666666666643  0.8333333333333356  0.4662420425354056   F   F   F
  0.6666666666666643  0.3333333333333357  0.4662420425354056   F   F   F
  0.6666666666666643  0.8333333333333356  0.4662420425354056   F   F   F
  0.3336029987272013  0.1673512343151086  0.5341467311948382   T   T   T
  0.3337318359754136  0.6674331843522765  0.5341108433117795   T   T   T
  0.8351668521593526  0.1704569251724688  0.5335962553788797   T   T   T
  0.8351548788669846  0.6705623973125869  0.5336195671671464   T   T   T
  0.1646906761733915  0.3292297149963142  0.5913370913226468   T   T   T
  0.1649738826886757  0.8294618902101224  0.5913608982429845   T   T   T
  0.6664261151610160  0.3329064561221033  0.5907993087987825   T   T   T
  0.6663306381320711  0.8327801807198055  0.5908417573326729   T   T   T
  0.3332476656417163  0.1667387546486686  0.6592227076524552   T   T   T
  0.3311577100713062  0.6626595925534939  0.6588840313559321   T   T   T
  0.8309879442736055  0.1684679328058663  0.6589744280688714   T   T   T
  0.8350166714102758  0.6703560775416193  0.6586878125219489   T   T   T
  0.1649528135016675  0.3294992922568237  0.7164398358583226   T   T   T
  0.1691842433361918  0.8315025232184673  0.7161079713146917   T   T   T
  0.6685991607591116  0.3370030792187987  0.7161415786174757   T   T   T
  0.6663984115014182  0.8329133386904722  0.7157641473453880   T   T   T
