Co H  O 
 1.0000000000000000
     6.3807491263412546    0.0000000000000000    0.0000000000000004
    -3.1903745631706255    5.5258908385868901    0.0000000000000004
     0.0000000000000000    0.0000000000000000   36.3629544850248649
 Co  H   O  
  16  33  32
Selective dynamics
Direct
  0.0000000000000000  0.0000000000000000  0.3125000000000000   F   F   F
  0.0000000000000000  0.5000000000000000  0.3125000000000000   F   F   F
  0.4999999999999999  0.0000000000000000  0.3125000000000000   F   F   F
  0.4999999999999999  0.5000000000000000  0.3125000000000000   F   F   F
  0.0000000000000000  0.0000000000000000  0.4375000000000000   F   F   F
  0.0000000000000000  0.5000000000000000  0.4375000000000000   F   F   F
  0.4999999999999999  0.0000000000000000  0.4375000000000000   F   F   F
  0.4999999999999999  0.5000000000000000  0.4375000000000000   F   F   F
 -0.0010693962803120  0.0011964994641740  0.5617529372263482   T   T   T
 -0.0007809726641661  0.5005622924222379  0.5616587458229017   T   T   T
  0.4988712651421636  1.0012211883715756  0.5616098239523950   T   T   T
  0.4983351178111194  0.5005595287801097  0.5616010127950487   T   T   T
  0.9922753738260649  0.9836630111867279  0.6869617909482708   T   T   T
  0.9707537000604141  0.5034304718815449  0.6830866279085961   T   T   T
  0.4926345828908704  0.9940012547775796  0.6880355988047318   T   T   T
  0.5170543602596320  0.5178984534057426  0.6836590876395646   T   T   T
  0.3333333333333357  0.1666666666666643  0.2569681620582500   F   F   F
  0.3333333333333357  0.6666666666666643  0.2569681620582500   F   F   F
  0.8333333333333357  0.1666666666666643  0.2569681620582500   F   F   F
  0.8333333333333357  0.6666666666666643  0.2569681620582500   F   F   F
  0.1666666666666643  0.3333333333333357  0.3680318379417500   F   F   F
  0.1666666666666643  0.8333333333333356  0.3680318379417500   F   F   F
  0.6666666666666643  0.3333333333333357  0.3680318379417500   F   F   F
  0.6666666666666643  0.8333333333333356  0.3680318379417500   F   F   F
  0.3333333333333357  0.1666666666666643  0.3819681620582500   F   F   F
  0.3333333333333357  0.6666666666666643  0.3819681620582500   F   F   F
  0.8333333333333357  0.1666666666666643  0.3819681620582500   F   F   F
  0.8333333333333357  0.6666666666666643  0.3819681620582500   F   F   F
  0.1666666666666643  0.3333333333333357  0.4930318379417499   F   F   F
  0.1666666666666643  0.8333333333333356  0.4930318379417499   F   F   F
  0.6666666666666643  0.3333333333333357  0.4930318379417499   F   F   F
  0.6666666666666643  0.8333333333333356  0.4930318379417499   F   F   F
  0.3320796994279960  0.1672279131256677  0.5065153519503479   T   T   T
  0.3320939198585068  0.6662903366812337  0.5064321073881997   T   T   T
  0.8336544286184654  0.1676952147666634  0.5064965923174403   T   T   T
  0.8328700357250317  0.6673768091313844  0.5066142855249034   T   T   T
  0.1683301116395032  0.3393306628104237  0.6170248949631224   T   T   T
  0.1643971808484635  0.8287097744309471  0.6167908902221511   T   T   T
  0.6653995729836424  0.3354299572384937  0.6167596795871080   T   T   T
  0.6636173588958063  0.8319680901741660  0.6166078133437857   T   T   T
  0.3248236006344257  0.1619396482378728  0.6334702450294311   T   T   T
  0.3331115916734647  0.6671125647345051  0.6313456699436637   T   T   T
  0.8345321501677190  0.1629123943026496  0.6341636826050213   T   T   T
  0.8323918733738486  0.6762323343900459  0.6258904923732257   T   T   T
  0.1631597800199504  0.3534638841064009  0.7498321681747826   T   T   T
  0.1466759549934137  0.8163800501584497  0.7412107250850066   T   T   T
  0.7181196799497391  0.3652246736306963  0.7421312614658846   T   T   T
  0.6641520433445843  0.8239932914479109  0.7417981692380549   T   T   T
  0.3559630535408123  0.2797478897631496  0.7332009068859401   T   T   T
  0.3333333333333357  0.1666666666666643  0.2837579574645943   F   F   F
  0.3333333333333357  0.6666666666666643  0.2837579574645943   F   F   F
  0.8333333333333357  0.1666666666666643  0.2837579574645943   F   F   F
  0.8333333333333357  0.6666666666666643  0.2837579574645943   F   F   F
  0.1666666666666643  0.3333333333333357  0.3412420425354057   F   F   F
  0.1666666666666643  0.8333333333333356  0.3412420425354057   F   F   F
  0.6666666666666643  0.3333333333333357  0.3412420425354057   F   F   F
  0.6666666666666643  0.8333333333333356  0.3412420425354057   F   F   F
  0.3333333333333357  0.1666666666666643  0.4087579574645943   F   F   F
  0.3333333333333357  0.6666666666666643  0.4087579574645943   F   F   F
  0.8333333333333357  0.1666666666666643  0.4087579574645943   F   F   F
  0.8333333333333357  0.6666666666666643  0.4087579574645943   F   F   F
  0.1666666666666643  0.3333333333333357  0.4662420425354056   F   F   F
  0.1666666666666643  0.8333333333333356  0.4662420425354056   F   F   F
  0.6666666666666643  0.3333333333333357  0.4662420425354056   F   F   F
  0.6666666666666643  0.8333333333333356  0.4662420425354056   F   F   F
  0.3319638184537068  0.1672824763559526  0.5333306427540453   T   T   T
  0.3321249690489847  0.6671190967879179  0.5332447034433027   T   T   T
  0.8327460720792604  0.1675436779310398  0.5333073830320840   T   T   T
  0.8324728169479365  0.6676278623751686  0.5334274526560764   T   T   T
  0.1652203500387636  0.3336438555488446  0.5902529571670626   T   T   T
  0.1664009882301248  0.8347605298168551  0.5900083448576369   T   T   T
  0.6653609245064538  0.3338905781478592  0.5899765670578027   T   T   T
  0.6643238400397873  0.8353959791166291  0.5898131731828558   T   T   T
  0.3307740862381268  0.1701814610037802  0.6602735816209028   T   T   T
  0.3261701191176071  0.6622244072616754  0.6581495650347747   T   T   T
  0.8317383876570043  0.1660469218086292  0.6610050576843999   T   T   T
  0.8293600742157285  0.6801098889407379  0.6526839325232167   T   T   T
  0.1963912300270575  0.2778441039177824  0.7290777034210731   T   T   T
  0.1560735275567058  0.8120027847314552  0.7146023432729663   T   T   T
  0.6166952243945262  0.3134730448409964  0.7202435697660319   T   T   T
  0.6634446647135999  0.8331391721652065  0.7151800150223280   T   T   T
