Co H  O 
 1.0000000000000000
     5.6977452034080489    0.0000000000000000    0.0000000000000003
     0.0000000000000015    9.2190899832277964   -0.4407871102770392
     0.0000000000000000    0.0000000000000000   27.6936133766900419
 Co  H   O  
  16  17  32
Selective dynamics
Direct
  0.3740661480806006  0.3891624559203540  0.6319789198917426   T   T   T
  0.3720530888425236  0.8789801015233318  0.6249893277055688   T   T   T
  0.8802134788145197  0.3859476301258668  0.6275118588303700   T   T   T
  0.8802030198531099  0.8791190101911239  0.6249534089915796   T   T   T
  0.1244661929241577  0.4580822626396196  0.5432099032952415   T   T   T
  0.1268180741964575  0.9608939888356587  0.5426660402216733   T   T   T
  0.6259901791159224  0.4581049579645520  0.5434859364604774   T   T   T
  0.6233021840704662  0.9610537755428650  0.5418638867872431   T   T   T
  0.3750000000000001  0.0416666666666643  0.4583333333333357   F   F   F
  0.3750000000000001  0.5416666666666643  0.4583333333333357   F   F   F
  0.8750000000000001  0.0416666666666643  0.4583333333333357   F   F   F
  0.8750000000000001  0.5416666666666643  0.4583333333333357   F   F   F
  0.1250000000000000  0.1250000000000000  0.3750000000000000   F   F   F
  0.1250000000000000  0.6250000000000000  0.3750000000000000   F   F   F
  0.6250000000000000  0.1250000000000000  0.3750000000000000   F   F   F
  0.6250000000000000  0.6250000000000000  0.3750000000000000   F   F   F
  0.1227915644388890  0.1739106972915358  0.6394820345472871   T   T   T
  0.1229494308702757  0.6575712654642821  0.6303620399092302   T   T   T
  0.6250087590962858  0.1149671749732137  0.6248004474719123   T   T   T
  0.6297362032094646  0.6604942644073218  0.6315606267599257   T   T   T
  0.3750520841720788  0.2265759615347047  0.5418434039897565   T   T   T
  0.3750075489323815  0.6927494111796988  0.5411540454704661   T   T   T
  0.8750132742595100  0.1991784266379125  0.5414883170442879   T   T   T
  0.8751534799940780  0.6940413729695327  0.5415018876586050   T   T   T
  0.1250000000000000  0.2916666666666643  0.4583333333333357   F   F   F
  0.1250000000000000  0.7916666666666643  0.4583333333333357   F   F   F
  0.6250000000000000  0.2916666666666643  0.4583333333333357   F   F   F
  0.6250000000000000  0.7916666666666643  0.4583333333333357   F   F   F
  0.3750000000000001  0.3750000000000000  0.3750000000000000   F   F   F
  0.3750000000000001  0.8749999999999999  0.3750000000000000   F   F   F
  0.8750000000000001  0.3750000000000000  0.3750000000000000   F   F   F
  0.8750000000000001  0.8749999999999999  0.3750000000000000   F   F   F
  0.6532579937061700  0.2476626266637637  0.6850273809672851   T   T   T
  0.1260372683324819  0.0078566432087501  0.6115950290506925   T   T   T
  0.1221372416178271  0.5094213145400737  0.6106573658508886   T   T   T
  0.6248799801554836  0.0095761372413999  0.6106920564717546   T   T   T
  0.6302145724880263  0.5079752940227960  0.6111164865679267   T   T   T
  0.1175253267986912  0.2753810247691176  0.6545295953149540   T   T   T
  0.1261868110688011  0.7649876458719357  0.6446055463361421   T   T   T
  0.6322483104211355  0.2621559884858298  0.6506941082647278   T   T   T
  0.6267564774079426  0.7676080813498125  0.6450973717444142   T   T   T
  0.3751348434967189  0.0840751447814646  0.5256165471845938   T   T   T
  0.3750616804255487  0.5842878970823319  0.5266940373725498   T   T   T
  0.8750774098993379  0.0864511704636687  0.5261801889659471   T   T   T
  0.8752014345779044  0.5848214038201643  0.5268509579479639   T   T   T
  0.3752383754583719  0.3337534007113554  0.5571539070692579   T   T   T
  0.3754978256221441  0.8364896469771212  0.5586222447319595   T   T   T
  0.8748259429986750  0.3332514340389339  0.5595038463130285   T   T   T
  0.8742877039876439  0.8366603954209012  0.5586439467929517   T   T   T
  0.1250000000000000  0.1680566799999994  0.4428820850000008   F   F   F
  0.1250000000000000  0.6680566799999994  0.4428820850000008   F   F   F
  0.6250000000000000  0.1680566799999994  0.4428820850000008   F   F   F
  0.6250000000000000  0.6680566799999994  0.4428820850000008   F   F   F
  0.1250000000000000  0.4152766533333363  0.4737845816666635   F   F   F
  0.1250000000000000  0.9152766533333364  0.4737845816666635   F   F   F
  0.6250000000000000  0.4152766533333363  0.4737845816666635   F   F   F
  0.6250000000000000  0.9152766533333364  0.4737845816666635   F   F   F
  0.3750000000000001  0.2513900133333352  0.3595487516666651   F   F   F
  0.3750000000000001  0.7513900133333351  0.3595487516666651   F   F   F
  0.8750000000000001  0.2513900133333352  0.3595487516666651   F   F   F
  0.8750000000000001  0.7513900133333351  0.3595487516666651   F   F   F
  0.3750000000000001  0.4986099866666649  0.3904512483333349   F   F   F
  0.3750000000000001  0.9986099866666650  0.3904512483333349   F   F   F
  0.8750000000000001  0.4986099866666649  0.3904512483333349   F   F   F
  0.8750000000000001  0.9986099866666650  0.3904512483333349   F   F   F
