Co H  O 
 1.0000000000000000
     6.3807491263412546    0.0000000000000000    0.0000000000000004
    -3.1903745631706255    5.5258908385868901    0.0000000000000004
     0.0000000000000000    0.0000000000000000   36.3629544850248649
 Co  H   O  
  16  34  32
Selective dynamics
Direct
  0.0000000000000000  0.0000000000000000  0.3125000000000000   F   F   F
  0.0000000000000000  0.5000000000000000  0.3125000000000000   F   F   F
  0.4999999999999999  0.0000000000000000  0.3125000000000000   F   F   F
  0.4999999999999999  0.5000000000000000  0.3125000000000000   F   F   F
  0.0000000000000000  0.0000000000000000  0.4375000000000000   F   F   F
  0.0000000000000000  0.5000000000000000  0.4375000000000000   F   F   F
  0.4999999999999999  0.0000000000000000  0.4375000000000000   F   F   F
  0.4999999999999999  0.5000000000000000  0.4375000000000000   F   F   F
  1.0023851360558300  1.0011363937179969  0.5615133440330966   T   T   T
  1.0033803754033899  0.5016208797015442  0.5615810991171168   T   T   T
  0.5018652398174429  1.0000484216987933  0.5616545188508099   T   T   T
  0.5020424506536653  0.5014447478496508  0.5614670998520062   T   T   T
  0.0086261873394836  1.0018574747601836  0.6736497424047975   T   T   T
  1.0015067343450310  0.5143739995987031  0.6877030539061315   T   T   T
  0.4970248577187788  0.0122278760442579  0.6878187987766752   T   T   T
  0.5096948421712172  0.5041745845613811  0.6873377253102348   T   T   T
  0.3333333333333357  0.1666666666666643  0.2569681620582500   F   F   F
  0.3333333333333357  0.6666666666666643  0.2569681620582500   F   F   F
  0.8333333333333357  0.1666666666666643  0.2569681620582500   F   F   F
  0.8333333333333357  0.6666666666666643  0.2569681620582500   F   F   F
  0.1666666666666643  0.3333333333333357  0.3680318379417500   F   F   F
  0.1666666666666643  0.8333333333333356  0.3680318379417500   F   F   F
  0.6666666666666643  0.3333333333333357  0.3680318379417500   F   F   F
  0.6666666666666643  0.8333333333333356  0.3680318379417500   F   F   F
  0.3333333333333357  0.1666666666666643  0.3819681620582500   F   F   F
  0.3333333333333357  0.6666666666666643  0.3819681620582500   F   F   F
  0.8333333333333357  0.1666666666666643  0.3819681620582500   F   F   F
  0.8333333333333357  0.6666666666666643  0.3819681620582500   F   F   F
  0.1666666666666643  0.3333333333333357  0.4930318379417499   F   F   F
  0.1666666666666643  0.8333333333333356  0.4930318379417499   F   F   F
  0.6666666666666643  0.3333333333333357  0.4930318379417499   F   F   F
  0.6666666666666643  0.8333333333333356  0.4930318379417499   F   F   F
  0.3343537198699017  0.1644392406539258  0.5062976713253677   T   T   T
  0.3318413315574762  0.6615642429760572  0.5060824608479986   T   T   T
  0.8323163747909830  0.1639250485562372  0.5063636513526499   T   T   T
  0.8324043282121663  0.6625920883993883  0.5064752741946366   T   T   T
  0.1712029002366811  0.3336556806507127  0.6167098338685251   T   T   T
  0.1678136504520778  0.8461441092228026  0.6167086633051446   T   T   T
  0.6743183918193163  0.3433668868572775  0.6171226157577985   T   T   T
  0.6792602063383811  0.8400817349004320  0.6169061308444497   T   T   T
  0.3716828757505273  0.1931926242111914  0.6291757400238375   T   T   T
  0.3405955545491429  0.6757187626526738  0.6349549389264804   T   T   T
  0.8248650120372062  0.1841919688306036  0.6331171534392980   T   T   T
  0.8226108207729124  0.6432480105121157  0.6287992621012664   T   T   T
  0.2090633399175199  0.4018481296295296  0.7534848491005065   T   T   T
  0.1529065384179500  0.8569036777515839  0.7399777848211080   T   T   T
  0.6764591267356311  0.3374084319487361  0.7427728922104329   T   T   T
  0.6101292988994703  0.8074385351352389  0.7532702260917726   T   T   T
  0.1075002078184870  0.1944023425409558  0.7221816813832399   T   T   T
  0.8178615127971861 -0.0885057609302356  0.7219315605347435   T   T   T
  0.3333333333333357  0.1666666666666643  0.2837579574645943   F   F   F
  0.3333333333333357  0.6666666666666643  0.2837579574645943   F   F   F
  0.8333333333333357  0.1666666666666643  0.2837579574645943   F   F   F
  0.8333333333333357  0.6666666666666643  0.2837579574645943   F   F   F
  0.1666666666666643  0.3333333333333357  0.3412420425354057   F   F   F
  0.1666666666666643  0.8333333333333356  0.3412420425354057   F   F   F
  0.6666666666666643  0.3333333333333357  0.3412420425354057   F   F   F
  0.6666666666666643  0.8333333333333356  0.3412420425354057   F   F   F
  0.3333333333333357  0.1666666666666643  0.4087579574645943   F   F   F
  0.3333333333333357  0.6666666666666643  0.4087579574645943   F   F   F
  0.8333333333333357  0.1666666666666643  0.4087579574645943   F   F   F
  0.8333333333333357  0.6666666666666643  0.4087579574645943   F   F   F
  0.1666666666666643  0.3333333333333357  0.4662420425354056   F   F   F
  0.1666666666666643  0.8333333333333356  0.4662420425354056   F   F   F
  0.6666666666666643  0.3333333333333357  0.4662420425354056   F   F   F
  0.6666666666666643  0.8333333333333356  0.4662420425354056   F   F   F
  0.3364826806185823  0.1651993537713086  0.5331111821443179   T   T   T
  0.3332147928199650  0.6632127478545503  0.5328926979973695   T   T   T
  0.8319330212385497  0.1648473990980667  0.5331752389990081   T   T   T
  0.8335723889223163  0.6641664145735040  0.5333021607432589   T   T   T
  0.1709515673633187  0.3378310553186059  0.5899153913311918   T   T   T
  0.1728032259235183  0.8375369128346144  0.5899715425440788   T   T   T
  0.6723731417054388  0.3382175955246805  0.5903408496744350   T   T   T
  0.6682300917016568  0.8368192496490352  0.5901626759949791   T   T   T
  0.3568360512247328  0.1816761634560998  0.6558829498300942   T   T   T
  0.3395307591983693  0.6753829903708205  0.6618022629698778   T   T   T
  0.8362689783756041  0.1739015120528385  0.6598031127211328   T   T   T
  0.8317037987902981  0.6542438644742099  0.6555553144615143   T   T   T
  0.1890719720582953  0.3761469850865344  0.7267311308482921   T   T   T
  0.1595025584510427  0.8526427877402404  0.7132694561536387   T   T   T
  0.6757092072149891  0.3374780116478295  0.7160470834828171   T   T   T
  0.6357695311669170  0.8272109562355798  0.7265320358991979   T   T   T
