Co H  O 
 1.0000000000000000
     5.6977452034080489    0.0000000000000000    0.0000000000000003
     0.0000000000000015    9.2190899832277964   -0.4407871102770392
     0.0000000000000000    0.0000000000000000   27.6936133766900419
 Co  H   O  
  16  18  33
Selective dynamics
Direct
  0.3736441668372802  0.3840887181842577  0.6272839970567335   T   T   T
  0.3749337492887627  0.8789381084539063  0.6255046605715494   T   T   T
  0.8733975994188408  0.3798841525960603  0.6248705722926544   T   T   T
  0.8748445337411219  0.8790156160721753  0.6254252419016669   T   T   T
  0.1246004574245325  0.4582262068910585  0.5432015370852584   T   T   T
  0.1252434160992490  0.9587384142382132  0.5429736272345822   T   T   T
  0.6242117567392950  0.4583167021564320  0.5432068213029312   T   T   T
  0.6244659251133889  0.9587182174193003  0.5429814550960720   T   T   T
  0.3750000000000001  0.0416666666666643  0.4583333333333357   F   F   F
  0.3750000000000001  0.5416666666666643  0.4583333333333357   F   F   F
  0.8750000000000001  0.0416666666666643  0.4583333333333357   F   F   F
  0.8750000000000001  0.5416666666666643  0.4583333333333357   F   F   F
  0.1250000000000000  0.1250000000000000  0.3750000000000000   F   F   F
  0.1250000000000000  0.6250000000000000  0.3750000000000000   F   F   F
  0.6250000000000000  0.1250000000000000  0.3750000000000000   F   F   F
  0.6250000000000000  0.6250000000000000  0.3750000000000000   F   F   F
  0.1213406578484788  0.1600853274682673  0.6321830066958610   T   T   T
  0.1242840688392528  0.6619871314389622  0.6332165417420293   T   T   T
  0.6265451721143864  0.1616252227050479  0.6322347719685245   T   T   T
  0.6249632598598631  0.6619784393050774  0.6330303865001085   T   T   T
  0.3747639455305101  0.1982898731965079  0.5423734909529524   T   T   T
  0.3745773411619616  0.6949262028344068  0.5413856841204014   T   T   T
  0.8745387546794650  0.1951688554624021  0.5412264131412542   T   T   T
  0.8746850238623534  0.6952592207602415  0.5412870054399941   T   T   T
  0.1250000000000000  0.2916666666666643  0.4583333333333357   F   F   F
  0.1250000000000000  0.7916666666666643  0.4583333333333357   F   F   F
  0.6250000000000000  0.2916666666666643  0.4583333333333357   F   F   F
  0.6250000000000000  0.7916666666666643  0.4583333333333357   F   F   F
  0.3750000000000001  0.3750000000000000  0.3750000000000000   F   F   F
  0.3750000000000001  0.8749999999999999  0.3750000000000000   F   F   F
  0.8750000000000001  0.3750000000000000  0.3750000000000000   F   F   F
  0.8750000000000001  0.8749999999999999  0.3750000000000000   F   F   F
  0.5052791534590753  0.3929984865849674  0.7081615010792391   T   T   T
  0.2384738832780686  0.3668695274177147  0.7023645675605734   T   T   T
  0.1249983858717482  1.0056858670200683  0.6106302354937949   T   T   T
  0.1215560679649102  0.5070222355687194  0.6104142289597038   T   T   T
  0.6248399046582935  1.0056671611653831  0.6106251712493589   T   T   T
  0.6259554620449695  0.5072131185673284  0.6105267692596933   T   T   T
  0.1183720174344093  0.2645611847196009  0.6467757873095229   T   T   T
  0.1246460114985348  0.7673257603873893  0.6468892485420964   T   T   T
  0.6287331356622655  0.2657422345640647  0.6468515293459624   T   T   T
  0.6250631297461731  0.7671919456559160  0.6468649585369053   T   T   T
  0.3748615350873206  0.0857828698536121  0.5266840290366595   T   T   T
  0.3744569569171792  0.5842899798309015  0.5266609812134571   T   T   T
  0.8748214543701004  0.0845767972836376  0.5265125453585479   T   T   T
  0.8744986242535177  0.5844523171250542  0.5264673598215573   T   T   T
  0.3745553513354895  0.3335499589692587  0.5601544889380865   T   T   T
  0.3747785817360129  0.8342655097319082  0.5584970844094794   T   T   T
  0.8742476879920497  0.3340941898349561  0.5583314094711639   T   T   T
  0.8747998802754896  0.8341048580133335  0.5584544519349381   T   T   T
  0.1250000000000000  0.1680566799999994  0.4428820850000008   F   F   F
  0.1250000000000000  0.6680566799999994  0.4428820850000008   F   F   F
  0.6250000000000000  0.1680566799999994  0.4428820850000008   F   F   F
  0.6250000000000000  0.6680566799999994  0.4428820850000008   F   F   F
  0.1250000000000000  0.4152766533333363  0.4737845816666635   F   F   F
  0.1250000000000000  0.9152766533333364  0.4737845816666635   F   F   F
  0.6250000000000000  0.4152766533333363  0.4737845816666635   F   F   F
  0.6250000000000000  0.9152766533333364  0.4737845816666635   F   F   F
  0.3750000000000001  0.2513900133333352  0.3595487516666651   F   F   F
  0.3750000000000001  0.7513900133333351  0.3595487516666651   F   F   F
  0.8750000000000001  0.2513900133333352  0.3595487516666651   F   F   F
  0.8750000000000001  0.7513900133333351  0.3595487516666651   F   F   F
  0.3750000000000001  0.4986099866666649  0.3904512483333349   F   F   F
  0.3750000000000001  0.9986099866666650  0.3904512483333349   F   F   F
  0.8750000000000001  0.4986099866666649  0.3904512483333349   F   F   F
  0.8750000000000001  0.9986099866666650  0.3904512483333349   F   F   F
  0.3607798018657702  0.4418815906139760  0.6985367227636642   T   T   T
