Co H  O 
 1.0000000000000000
     5.6977452034080489    0.0000000000000000    0.0000000000000003
     0.0000000000000015    9.2190899832277964   -0.4407871102770392
     0.0000000000000000    0.0000000000000000   27.6936133766900419
 Co  H   O  
  16  18  33
Selective dynamics
Direct
  0.3708533981926404  0.3846472350901327  0.6291445726435829   T   T   T
  0.3769354848283372  0.8733853861697651  0.6252537694575839   T   T   T
  0.8684239071482099  0.3812200630895458  0.6257783341026051   T   T   T
  0.8699101033883265  0.8735350369783177  0.6251078372963039   T   T   T
  0.1222827396571455  0.4576500141272605  0.5432091673867933   T   T   T
  0.1259679343703951  0.9592237462601197  0.5420540959246959   T   T   T
  0.6245409742244760  0.4578419008987191  0.5431123239782316   T   T   T
  0.6220574916733348  0.9585015767867692  0.5427452386613368   T   T   T
  0.3750000000000001  0.0416666666666643  0.4583333333333357   F   F   F
  0.3750000000000001  0.5416666666666643  0.4583333333333357   F   F   F
  0.8750000000000001  0.0416666666666643  0.4583333333333357   F   F   F
  0.8750000000000001  0.5416666666666643  0.4583333333333357   F   F   F
  0.1250000000000000  0.1250000000000000  0.3750000000000000   F   F   F
  0.1250000000000000  0.6250000000000000  0.3750000000000000   F   F   F
  0.6250000000000000  0.1250000000000000  0.3750000000000000   F   F   F
  0.6250000000000000  0.6250000000000000  0.3750000000000000   F   F   F
  0.1230002486069306  0.1102399982086975  0.6257101140276953   T   T   T
  0.1229665271095827  0.6566404027999742  0.6347241239539239   T   T   T
  0.6248805456214892  0.1641811373362262  0.6333969324000417   T   T   T
  0.6228856407102559  0.6538990602960885  0.6329812215743189   T   T   T
  0.3745931168121964  0.2222328927828416  0.5444955718496790   T   T   T
  0.3734457956577816  0.6933970273728997  0.5411133961603891   T   T   T
  0.8736104688313301  0.1963356058636486  0.5410618083445076   T   T   T
  0.8742938530835752  0.6956936363894002  0.5416048537565233   T   T   T
  0.1250000000000000  0.2916666666666643  0.4583333333333357   F   F   F
  0.1250000000000000  0.7916666666666643  0.4583333333333357   F   F   F
  0.6250000000000000  0.2916666666666643  0.4583333333333357   F   F   F
  0.6250000000000000  0.7916666666666643  0.4583333333333357   F   F   F
  0.3750000000000001  0.3750000000000000  0.3750000000000000   F   F   F
  0.3750000000000001  0.8749999999999999  0.3750000000000000   F   F   F
  0.8750000000000001  0.3750000000000000  0.3750000000000000   F   F   F
  0.8750000000000001  0.8749999999999999  0.3750000000000000   F   F   F
  0.4690082452947383  0.4155173931348024  0.7108237307777336   T   T   T
  0.1446950992222116  0.2816197227286658  0.6805493878086520   T   T   T
  0.1239417744398815  0.0037775609059384  0.6107186402050485   T   T   T
  0.1171305199656834  0.5055029571029793  0.6102662806998153   T   T   T
  0.6229245168116433  1.0014490527219799  0.6114739794261230   T   T   T
  0.6239723885746643  0.5060847360823347  0.6105014053745842   T   T   T
  0.1170185063247479  0.2558664465578110  0.6456292431104683   T   T   T
  0.1231003789146226  0.7649067057615335  0.6458560609968346   T   T   T
  0.6278156035489680  0.2667038087578339  0.6481377745306961   T   T   T
  0.6236620203723292  0.7617004962655760  0.6456355705760132   T   T   T
  0.3743169302339006  0.0844388892493099  0.5262838644922410   T   T   T
  0.3736656843900893  0.5834258651002607  0.5266957187852915   T   T   T
  0.8738502126381468  0.0844326090380169  0.5264207227701231   T   T   T
  0.8737530014839807  0.5841514666945402  0.5266729317964842   T   T   T
  0.3741001861713764  0.3330809963178425  0.5593432073710902   T   T   T
  0.3726384822761437  0.8338717409217815  0.5582007945099272   T   T   T
  0.8734243105210001  0.3327956415593247  0.5584416658602913   T   T   T
  0.8749953050968196  0.8335054195476208  0.5582690065261755   T   T   T
  0.1250000000000000  0.1680566799999994  0.4428820850000008   F   F   F
  0.1250000000000000  0.6680566799999994  0.4428820850000008   F   F   F
  0.6250000000000000  0.1680566799999994  0.4428820850000008   F   F   F
  0.6250000000000000  0.6680566799999994  0.4428820850000008   F   F   F
  0.1250000000000000  0.4152766533333363  0.4737845816666635   F   F   F
  0.1250000000000000  0.9152766533333364  0.4737845816666635   F   F   F
  0.6250000000000000  0.4152766533333363  0.4737845816666635   F   F   F
  0.6250000000000000  0.9152766533333364  0.4737845816666635   F   F   F
  0.3750000000000001  0.2513900133333352  0.3595487516666651   F   F   F
  0.3750000000000001  0.7513900133333351  0.3595487516666651   F   F   F
  0.8750000000000001  0.2513900133333352  0.3595487516666651   F   F   F
  0.8750000000000001  0.7513900133333351  0.3595487516666651   F   F   F
  0.3750000000000001  0.4986099866666649  0.3904512483333349   F   F   F
  0.3750000000000001  0.9986099866666650  0.3904512483333349   F   F   F
  0.8750000000000001  0.4986099866666649  0.3904512483333349   F   F   F
  0.8750000000000001  0.9986099866666650  0.3904512483333349   F   F   F
  0.3326866111969350  0.4487747480003942  0.6931494946837760   T   T   T
