Co H  O 
 1.0000000000000000
    -1.5858462993176945   -2.7450328119385419    0.0010356173193404
     3.1918533025975862   -0.0096665034746308    0.0253326453049659
     0.0366878684671849   -0.0307882866459610    4.5451169678802090
 Co  H   O  
   1   2   2
Direct
  0.0628611531484680  0.0628088950088994  0.9999618639545388
  0.7277304810537473  0.3903364631226864  0.5557452964660143
  0.3976566812425871  0.7351184626006457  0.4442807651990037
  0.7296545726943222  0.3934313379783633  0.7700636597167332
  0.3960421118608721  0.7322498412893950  0.2299484146637241
