Co O 
 1.0000000000000000
     1.6543190000505594    4.6703259587103583    2.8582161349410393
     0.0000127955187122    0.0002169156394571    5.7175092113348134
     4.9545481300941869    0.0028281419663318    2.8580849267252977
 Co  O  
   6   8
Direct
  0.6250000000000000  0.6249999999999999  0.6250000000000001
  0.6250000000000000  0.6250000000000000  0.1250000000000000
  0.1250000000000000  0.6250000000000000  0.6250000000000001
  0.2500084159852918  0.2499858874204861  0.2500128341937611
  0.9999915840147082  0.0000151125795184  0.9999861658062414
  0.6250000000000000  0.1250000000000000  0.6250000000000001
  0.3886538070308916  0.8343294564145580  0.3886753588884488
  0.4157620310651140  0.8611847835365722  0.8617675381654452
  0.3882498364499085  0.3888443878015194  0.8342369415142984
  0.8342379689348860  0.3888142164634231  0.3882314618345575
  0.3888238480633390  0.3880973904473493  0.3888174410970393
  0.8617501635500915  0.8611566121984848  0.4157630584857018
  0.8613461929691083  0.4156715435854396  0.8613246411115512
  0.8611761519366610  0.8619026095526507  0.8611825589029607
