Co1 H2 O2                               
   1.0000000000000000     
    -1.5858462993176945   -2.7450328119385419    0.0010356173193404
     3.1918533025975862   -0.0096665034746308    0.0253326453049659
     0.0366878684671849   -0.0307882866459610    4.5451169678802090
  Co              H               O             
     1     2     2
Direct
  0.0628611531484660  0.0628088950088964  0.9999618639545358
  0.7277304810537479  0.3903364631226866  0.5557452964660150
  0.3976566812425906  0.7351184626006483  0.4442807651990007
  0.7296545726943189  0.3934313379783611  0.7700636597167304
  0.3960421118608737  0.7322498412893973  0.2299484146637248

  0.00000000E+00 -0.00000000E+00  0.00000000E+00
  0.00000000E+00 -0.00000000E+00  0.00000000E+00
  0.00000000E+00 -0.00000000E+00  0.00000000E+00
  0.00000000E+00 -0.00000000E+00  0.00000000E+00
  0.00000000E+00 -0.00000000E+00  0.00000000E+00
