Co H  C  N 
 1.0000000000000000
    13.8050792421432948    0.0000000000000000   -4.8808325722513288
    -6.9025396187763697   11.9555493262784989   -4.8808325722513288
     0.0000000000000000    0.0000000000000000   14.6424977199999997
 Co  H   C   N  
   6  60  48  24
Direct
  0.2498664027193322  0.5003175307871217  0.7498312476680283
  0.7503922121250396  0.4998857646599156  0.2502908914577086
  0.4999964091690263  0.2504283418077813  0.7505190709269953
  0.4997389209422194  0.7492296738280154  0.2495228198086074
  0.7496218216682652  0.2495811420866644  0.5002118912546285
  0.2505503015779861  0.7507570134332943  0.5003056697945373
  0.1164172518663461  0.5407396668267505  0.8749287193870446
  0.8835803390025916  0.7588229487079248  0.4231940667092972
  0.3325900599524737  0.4580127967421104  0.5743747295148246
  0.6642395101168344  0.2393186052850730  0.1243975480521514
  0.2393748229282387  0.1244371429079833  0.6643597302198850
  0.4601887068909252  0.5763674669452127  0.3353712102854057
  0.7590705636605711  0.4232071881801046  0.8840310708324997
  0.5407691379696127  0.8749539649654744  0.1166968705437284
  0.5744834663021443  0.3329137404900199  0.4583252973403575
  0.1249008159112936  0.6654056098281959  0.2417508916627015
  0.8749650412283526  0.1162979769060619  0.5402344756536936
  0.4239137913544477  0.8838465305103024  0.7587211898598591
  0.1142616287245828  0.8759004098827902  0.5404476176536916
  0.8853764691085557  0.4270582395575208  0.7610919112326517
  0.3345819592553884  0.5735344746887701  0.4590866388856746
  0.6663226438255793  0.1254118720599182  0.2413587880232144
  0.2383112165707192  0.6649147578990857  0.1243679840680374
  0.4608677923724016  0.3368241759909406  0.5754717975719772
  0.7613469837095147  0.8854131944045676  0.4263809929456264
  0.5407938679076304  0.1146096176180813  0.8758054781570211
  0.5758029219284148  0.4611312537290425  0.3372810156532555
  0.1254695100965556  0.2413177612959184  0.6664856978905681
  0.8758247270363267  0.5403842193326213  0.1146449931026335
  0.4271353206319423  0.7612662623320163  0.8857408568945553
  0.0413637384528323  0.3785340111583001  0.4822082515337944
  0.9589426102975894  0.4402689617801935  0.3396082050623770
  0.1016969516926581  0.6190993421617950  0.6615684173235948
  0.6185470809365098  0.6615205398576139  0.1018500832825780
  0.4399158240347886  0.3391162103418064  0.9581230649304805
  0.3782826509054645  0.4820849171599006  0.0414733882656361
  0.6618352549673613  0.1019575315696495  0.6190286239895415
  0.5179581845042155  0.8981907230090399  0.5595687205432123
  0.4820453002037559  0.0413765784096458  0.3800013219197796
  0.3386319549128776  0.9580871945924094  0.4403762824448187
  0.8975461436109324  0.5166763780005874  0.5605614173101975
  0.5166160567430468  0.5606203147503533  0.8973646874624553
  0.9095526164467316  0.2615843679522743  0.4317508514069996
  0.0901885838090791  0.5215570777966443  0.3534875585787280
  0.1678293249842697  0.7365917648909605  0.6473071777178909
  0.7359954852735173  0.6469523081622360  0.1671554677731246
  0.5205420270208132  0.3530228037534252  0.0895731910488313
  0.2615357642191312  0.4317689648012438  0.9095870239471769
  0.6481901582438195  0.1680978682013596  0.7369478800353929
  0.5684487851088130  0.8314294295459873  0.4785425616397581
  0.4314316574635507  0.9098604473675840  0.2626028676552987
  0.3523505281989104  0.0894991562994396  0.5206742880854562
  0.8328174479953424  0.5693291926188416  0.4808664364118700
  0.5693405246864669  0.4810072430131852  0.8326180306446181
  0.0382506694014147  0.2660979274834721  0.5026156086891873
  0.9610561163314536  0.4639179686406274  0.2300627457993287
  0.2344330844179922  0.7315014849164569  0.7710885724414330
  0.7315757251447470  0.7709277345702372  0.2342846023787018
  0.4637802900672225  0.2297997192773983  0.9606495528371991
  0.2658730123079260  0.5025940045863599  0.0381890712195934
  0.7714263772509641  0.2348469408718114  0.7312776665357515
  0.4973911383916807  0.7652850891745098  0.5363102139232890
  0.5027878337850247  0.0387859843093315  0.2677888447038398
  0.2289729089498417  0.9605738138276506  0.4636386999522937
  0.7648296498014530  0.4966411991985928  0.5364194277962462
  0.4964360308514602  0.5363986328998981  0.7645865835684466
 -0.0034192223268294  0.3163379281474124  0.5003373983518767
  0.0032289183937982  0.5032380241540060  0.3219963596929640
  0.1819384689249461  0.6816570094595985  0.6791412899162770
  0.8178646455874120  0.4996082999796229  0.4975810471989052
  0.4995639306976016  0.4976369743135606  0.8176886960281774
  0.6813966642963621  0.6789968528066058  0.1818580731673134
  0.5028668864623851  0.3217207050187481  0.0028237876957695
  0.3162178581894802  0.5003171346906673 -0.0033630646843379
  0.6794865451990886  0.1821558329549391  0.6816533552636624
  0.4997715905974512  0.8177420762849327  0.4968323788256250
  0.5001852292060511 -0.0032196542761293  0.3177220256838749
  0.3209153686582667  0.0027717994580260  0.5030307368582740
 -0.0013934868191339  0.3718140009847627  0.6080702922984141
  0.0013245525203325  0.6089289177087779  0.3754357581315226
  0.2344107190244958  0.6267217979440883  0.6256347411516159
  0.7655674519505590  0.3924068995453231  0.3914213458810591
  0.3924228311835557  0.3914379233874473  0.7654971271546589
  0.6269484297081283  0.6258179328597103  0.2348510851124500
  0.6087758048194259  0.3753873183871128  0.0013625106734371
  0.3718525421460681  0.6080528815265944 -0.0012560820099285
  0.6257446509113750  0.2346151685297676  0.6268865827587714
  0.3920984703999109  0.7652168434710159  0.3910481118397507
  0.6077770099146500 -0.0014669093772374  0.3728781979485092
  0.3744922259734739  0.0013865118969541  0.6090498772102989
  0.0576942044329177  0.4794930817828622  0.7872025835942607
  0.9421458657338474  0.7293358827372961  0.4215833089704343
  0.3064247940472288  0.5195568793024627  0.5774476669419912
  0.6919190701031084  0.2699050491555802  0.2125455408467468
  0.2699754886328138  0.2125770617470440  0.6920032699098714
  0.5209695426241713  0.5786681760619311  0.3082351455559502
  0.7294018013037679  0.4215981869871272  0.9424636647335224
  0.4795752937462485  0.7871953737553192  0.0579866001176221
  0.5776710078884929  0.3067779668029743  0.5199070820006818
  0.2127588181405246  0.6924147256469483  0.2709424357200623
  0.7871239907390045  0.0576392055630993  0.4793906684496348
  0.4217902661837634  0.9424038549899552  0.7293639462190673
  0.0571308950915374  0.7877190002522351  0.4799035549495079
  0.9427195406626480  0.4227827717228612  0.7305726360813112
  0.3073624784921130  0.5770639856641393  0.5199334029185236
  0.6929671732134455  0.2132324578774857  0.2708529103180747
  0.2692507684732571  0.6921065919646481  0.2124539395559175
  0.5209024397038101  0.3086091587837207  0.5781113122076544
  0.7305394932874401  0.9426575327097052  0.4226357581404109
  0.4799678000790917  0.0573840901496212  0.7876961896438049
  0.5784862130020274  0.5212346877758213  0.3091498026401396
  0.2132817379399372  0.2708630562913011  0.6930692092414303
  0.7876298743931764  0.4798824621240466  0.0574534906456082
  0.4228983536149767  0.7306410270447995  0.9430128568050675
  0.0917153762157502  0.4465018636990248  0.7101213469810871
  0.9082126018673921  0.6179919543580540  0.3561484462365201
  0.2617737210033275  0.5520017256046313  0.6439425549172434
  0.7367270915886373  0.3815038694576981  0.2887854043884153
  0.3815468538615600  0.2888151407163554  0.7366981405386468
  0.5525335161751800  0.6444050164638397  0.2626200675034867
  0.6180274627589755  0.3561673894874343  0.9083452952217390
  0.4465600921627231  0.7100473787732244  0.0919081877993630
  0.6437579110786285  0.2616230477315488  0.5519100223693576
  0.2900311399440498  0.7373691439765331  0.3820969583856863
  0.7099025590539000  0.0915977008956737  0.4470423193374204
  0.3556077290697842  0.9083495563445838  0.6181754172625578
  0.0929106792544708  0.7116684148034733  0.4494265049098024
  0.9069970744667036  0.3550078753255870  0.6190114119170189
  0.2630270699353109  0.6443398517120297  0.5515802754979442
  0.7381319135957014  0.2902148252797948  0.3821940536915322
  0.3810042623759000  0.7368602261671932  0.2883480379665723
  0.5522221378534526  0.2638823855643216  0.6450833978508180
  0.6187859247162649  0.9068982688586922  0.3556833146657131
  0.4488769632449898  0.0930940068224936  0.7116759421895631
  0.6449488296169514  0.5520917760275952  0.2638344658135214
  0.2902314348857206  0.3821924522134993  0.7381435838334409
  0.7114418664454418  0.4493853753826014  0.0930553028218376
  0.3551286837140156  0.6190730469447264  0.9071823876346939
