Co16 H33 O32                            
   1.0000000000000000     
     6.3807491263412546    0.0000000000000000    0.0000000000000004
    -3.1903745631706255    5.5258908385868901    0.0000000000000004
     0.0000000000000000    0.0000000000000000   36.3629544850248649
  Co              H               O             
    16    33    32
Selective dynamics
Direct
  0.0000000000000000  0.0000000000000000  0.3125000000000000   F   F   F
  0.0000000000000000  0.5000000000000000  0.3125000000000000   F   F   F
  0.5000000000000000  0.0000000000000000  0.3125000000000000   F   F   F
  0.5000000000000000  0.5000000000000000  0.3125000000000000   F   F   F
  0.0000000000000000  0.0000000000000000  0.4375000000000000   F   F   F
  0.0000000000000000  0.5000000000000000  0.4375000000000000   F   F   F
  0.5000000000000000  0.0000000000000000  0.4375000000000000   F   F   F
  0.5000000000000000  0.5000000000000000  0.4375000000000000   F   F   F
  0.0001184505413073  0.0000722272324869  0.5624239382969416   T   T   T
  0.0000676071323489  0.4999811688737202  0.5624243393173671   T   T   T
  0.4998886294575460  0.9999307470517144  0.5624516389641880   T   T   T
  0.4998005915279031  0.4998251015790064  0.5624236648041593   T   T   T
  0.9787200438309064  0.9761298554359906  0.6855263577690343   T   T   T
  0.9948566777880349  0.5050193829770950  0.6861373456923443   T   T   T
  0.5002523450946674  0.9994276503478486  0.6876273798266505   T   T   T
  0.5247552682421716  0.5197738448892703  0.6853371885686653   T   T   T
  0.3333333333333357  0.1666666666666643  0.2569681620582500   F   F   F
  0.3333333333333357  0.6666666666666643  0.2569681620582500   F   F   F
  0.8333333333333357  0.1666666666666643  0.2569681620582500   F   F   F
  0.8333333333333357  0.6666666666666643  0.2569681620582500   F   F   F
  0.1666666666666643  0.3333333333333357  0.3680318379417500   F   F   F
  0.1666666666666643  0.8333333333333357  0.3680318379417500   F   F   F
  0.6666666666666643  0.3333333333333357  0.3680318379417500   F   F   F
  0.6666666666666643  0.8333333333333357  0.3680318379417500   F   F   F
  0.3333333333333357  0.1666666666666643  0.3819681620582500   F   F   F
  0.3333333333333357  0.6666666666666643  0.3819681620582500   F   F   F
  0.8333333333333357  0.1666666666666643  0.3819681620582500   F   F   F
  0.8333333333333357  0.6666666666666643  0.3819681620582500   F   F   F
  0.1666666666666643  0.3333333333333357  0.4930318379417500   F   F   F
  0.1666666666666643  0.8333333333333357  0.4930318379417500   F   F   F
  0.6666666666666643  0.3333333333333357  0.4930318379417500   F   F   F
  0.6666666666666643  0.8333333333333357  0.4930318379417500   F   F   F
  0.3334116808060313  0.1668613310540113  0.5069954409690403   T   T   T
  0.3335166930844081  0.6669284469158971  0.5072360919261983   T   T   T
  0.8331694001001220  0.1665571222079738  0.5071650805825210   T   T   T
  0.8329866923245071  0.6667910248896910  0.5071699277920676   T   T   T
  0.1673736592155604  0.3336745859040667  0.6178517631829431   T   T   T
  0.1671083376267997  0.8333719125652534  0.6177826659274890   T   T   T
  0.6659862812766183  0.3328463369362904  0.6177736157729592   T   T   T
  0.6659048597058752  0.8327336534052497  0.6180285392337093   T   T   T
  0.3317369541485965  0.1666203188908358  0.6324779975570886   T   T   T
  0.3329202051774246  0.6669088518580012  0.6320432203406654   T   T   T
  0.8336398303957735  0.1661210059444385  0.6322222137199099   T   T   T
  0.8348855256444377  0.6670811886233080  0.6304334948716644   T   T   T
  0.1640457257471552  0.3343377699276059  0.7457542543397251   T   T   T
  0.1653034019611602  0.8327474640681923  0.7427611391141715   T   T   T
  0.6679501114575992  0.3338818047001431  0.7430229846363874   T   T   T
  0.6676532319253690  0.8344345167599118  0.7428027612637840   T   T   T
  0.2592630886230289  0.2495961040393975  0.7115297977346199   T   T   T
  0.3333333333333357  0.1666666666666643  0.2837579574645943   F   F   F
  0.3333333333333357  0.6666666666666643  0.2837579574645943   F   F   F
  0.8333333333333357  0.1666666666666643  0.2837579574645943   F   F   F
  0.8333333333333357  0.6666666666666643  0.2837579574645943   F   F   F
  0.1666666666666643  0.3333333333333357  0.3412420425354057   F   F   F
  0.1666666666666643  0.8333333333333357  0.3412420425354057   F   F   F
  0.6666666666666643  0.3333333333333357  0.3412420425354057   F   F   F
  0.6666666666666643  0.8333333333333357  0.3412420425354057   F   F   F
  0.3333333333333357  0.1666666666666643  0.4087579574645943   F   F   F
  0.3333333333333357  0.6666666666666643  0.4087579574645943   F   F   F
  0.8333333333333357  0.1666666666666643  0.4087579574645943   F   F   F
  0.8333333333333357  0.6666666666666643  0.4087579574645943   F   F   F
  0.1666666666666643  0.3333333333333357  0.4662420425354057   F   F   F
  0.1666666666666643  0.8333333333333357  0.4662420425354057   F   F   F
  0.6666666666666643  0.3333333333333357  0.4662420425354057   F   F   F
  0.6666666666666643  0.8333333333333357  0.4662420425354057   F   F   F
  0.3334282924905987  0.1657571708520382  0.5337926326491220   T   T   T
  0.3345790906507509  0.6682893434237188  0.5340405733340865   T   T   T
  0.8321210654568946  0.1658282694888455  0.5340299677870816   T   T   T
  0.8318463220493935  0.6670916368369575  0.5339673201571188   T   T   T
  0.1680261315224299  0.3326318887720732  0.5910700138633445   T   T   T
  0.1677163951752728  0.8341286440151370  0.5910010973954999   T   T   T
  0.6654885703763519  0.3317996800065125  0.5910007135291059   T   T   T
  0.6666914341925186  0.8341741904366115  0.5913032966370365   T   T   T
  0.3310789866504399  0.1645709520918731  0.6592741437019537   T   T   T
  0.3298050153161254  0.6645618523487220  0.6588501291736508   T   T   T
  0.8357463646696044  0.1683980571083013  0.6589506189181072   T   T   T
  0.8396177836505481  0.6647027238639881  0.6570860617891802   T   T   T
  0.1634796944122600  0.3285270161077297  0.7183695991534669   T   T   T
  0.1675799699481328  0.8364649288949624  0.7158805418946731   T   T   T
  0.6668033070839305  0.3322425685635803  0.7162048213549743   T   T   T
  0.6646859446928545  0.8383457211091796  0.7160235486257100   T   T   T

  0.00000000E+00  0.00000000E+00  0.00000000E+00
  0.00000000E+00  0.00000000E+00  0.00000000E+00
  0.00000000E+00  0.00000000E+00  0.00000000E+00
  0.00000000E+00  0.00000000E+00  0.00000000E+00
  0.00000000E+00  0.00000000E+00  0.00000000E+00
  0.00000000E+00  0.00000000E+00  0.00000000E+00
  0.00000000E+00  0.00000000E+00  0.00000000E+00
  0.00000000E+00  0.00000000E+00  0.00000000E+00
  0.00000000E+00  0.00000000E+00  0.00000000E+00
  0.00000000E+00  0.00000000E+00  0.00000000E+00
  0.00000000E+00  0.00000000E+00  0.00000000E+00
  0.00000000E+00  0.00000000E+00  0.00000000E+00
  0.00000000E+00  0.00000000E+00  0.00000000E+00
  0.00000000E+00  0.00000000E+00  0.00000000E+00
  0.00000000E+00  0.00000000E+00  0.00000000E+00
  0.00000000E+00  0.00000000E+00  0.00000000E+00
  0.00000000E+00  0.00000000E+00  0.00000000E+00
  0.00000000E+00  0.00000000E+00  0.00000000E+00
  0.00000000E+00  0.00000000E+00  0.00000000E+00
  0.00000000E+00  0.00000000E+00  0.00000000E+00
  0.00000000E+00  0.00000000E+00  0.00000000E+00
  0.00000000E+00  0.00000000E+00  0.00000000E+00
  0.00000000E+00  0.00000000E+00  0.00000000E+00
  0.00000000E+00  0.00000000E+00  0.00000000E+00
  0.00000000E+00  0.00000000E+00  0.00000000E+00
  0.00000000E+00  0.00000000E+00  0.00000000E+00
  0.00000000E+00  0.00000000E+00  0.00000000E+00
  0.00000000E+00  0.00000000E+00  0.00000000E+00
  0.00000000E+00  0.00000000E+00  0.00000000E+00
  0.00000000E+00  0.00000000E+00  0.00000000E+00
  0.00000000E+00  0.00000000E+00  0.00000000E+00
  0.00000000E+00  0.00000000E+00  0.00000000E+00
  0.00000000E+00  0.00000000E+00  0.00000000E+00
  0.00000000E+00  0.00000000E+00  0.00000000E+00
  0.00000000E+00  0.00000000E+00  0.00000000E+00
  0.00000000E+00  0.00000000E+00  0.00000000E+00
  0.00000000E+00  0.00000000E+00  0.00000000E+00
  0.00000000E+00  0.00000000E+00  0.00000000E+00
  0.00000000E+00  0.00000000E+00  0.00000000E+00
  0.00000000E+00  0.00000000E+00  0.00000000E+00
  0.00000000E+00  0.00000000E+00  0.00000000E+00
  0.00000000E+00  0.00000000E+00  0.00000000E+00
  0.00000000E+00  0.00000000E+00  0.00000000E+00
  0.00000000E+00  0.00000000E+00  0.00000000E+00
  0.00000000E+00  0.00000000E+00  0.00000000E+00
  0.00000000E+00  0.00000000E+00  0.00000000E+00
  0.00000000E+00  0.00000000E+00  0.00000000E+00
  0.00000000E+00  0.00000000E+00  0.00000000E+00
  0.00000000E+00  0.00000000E+00  0.00000000E+00
  0.00000000E+00  0.00000000E+00  0.00000000E+00
  0.00000000E+00  0.00000000E+00  0.00000000E+00
  0.00000000E+00  0.00000000E+00  0.00000000E+00
  0.00000000E+00  0.00000000E+00  0.00000000E+00
  0.00000000E+00  0.00000000E+00  0.00000000E+00
  0.00000000E+00  0.00000000E+00  0.00000000E+00
  0.00000000E+00  0.00000000E+00  0.00000000E+00
  0.00000000E+00  0.00000000E+00  0.00000000E+00
  0.00000000E+00  0.00000000E+00  0.00000000E+00
  0.00000000E+00  0.00000000E+00  0.00000000E+00
  0.00000000E+00  0.00000000E+00  0.00000000E+00
  0.00000000E+00  0.00000000E+00  0.00000000E+00
  0.00000000E+00  0.00000000E+00  0.00000000E+00
  0.00000000E+00  0.00000000E+00  0.00000000E+00
  0.00000000E+00  0.00000000E+00  0.00000000E+00
  0.00000000E+00  0.00000000E+00  0.00000000E+00
  0.00000000E+00  0.00000000E+00  0.00000000E+00
  0.00000000E+00  0.00000000E+00  0.00000000E+00
  0.00000000E+00  0.00000000E+00  0.00000000E+00
  0.00000000E+00  0.00000000E+00  0.00000000E+00
  0.00000000E+00  0.00000000E+00  0.00000000E+00
  0.00000000E+00  0.00000000E+00  0.00000000E+00
  0.00000000E+00  0.00000000E+00  0.00000000E+00
  0.00000000E+00  0.00000000E+00  0.00000000E+00
  0.00000000E+00  0.00000000E+00  0.00000000E+00
  0.00000000E+00  0.00000000E+00  0.00000000E+00
  0.00000000E+00  0.00000000E+00  0.00000000E+00
  0.00000000E+00  0.00000000E+00  0.00000000E+00
  0.00000000E+00  0.00000000E+00  0.00000000E+00
  0.00000000E+00  0.00000000E+00  0.00000000E+00
  0.00000000E+00  0.00000000E+00  0.00000000E+00
  0.00000000E+00  0.00000000E+00  0.00000000E+00
