Co4                                     
   1.0000000000000000     
     2.4729672561313860    0.0000000005628531   -0.0000000000000000
    -1.2364831120769719    2.1416510295311251    0.0000000000000000
     0.0000000000000000    0.0000000000000000    7.9749863869465614
  Co            
     4
Direct
  1.0000000000000000  1.0000000000000000  0.0000000000000000
  0.3333330000000032  0.6666669999999968  0.2499951400000029
  1.0000000000000000  1.0000000000000000  0.5000000000000000
  0.6666669999999968  0.3333330000000032  0.7500028600000022

  0.00000000E+00  0.00000000E+00  0.00000000E+00
  0.00000000E+00  0.00000000E+00  0.00000000E+00
  0.00000000E+00  0.00000000E+00  0.00000000E+00
  0.00000000E+00  0.00000000E+00  0.00000000E+00
