Co16 H32 O32
1.0
   6.3807491263412546    0.0000000000000000    0.0000000000000004
  -3.1903745631706255    5.5258908385868901    0.0000000000000004
   0.0000000000000000    0.0000000000000000   36.3629544850248649
Co H O
16 32 32
Selective dynamics
direct
   0.0000000000000000    0.0000000000000000    0.3125000000000001 F F F Co
   0.0000000000000000    0.5000000000000000    0.3125000000000001 F F F Co
   0.4999999999999999    0.0000000000000000    0.3125000000000001 F F F Co
   0.4999999999999999    0.5000000000000000    0.3125000000000001 F F F Co
   0.0000000000000000    0.0000000000000000    0.4375000000000001 F F F Co
   0.0000000000000000    0.5000000000000000    0.4375000000000001 F F F Co
   0.4999999999999999    0.0000000000000000    0.4375000000000001 F F F Co
   0.4999999999999999    0.5000000000000000    0.4375000000000001 F F F Co
   0.0000000000000000    0.0000000000000000    0.5625000000000001 T T T Co
   0.0000000000000000    0.5000000000000000    0.5625000000000001 T T T Co
   0.4999999999999999    0.0000000000000000    0.5625000000000001 T T T Co
   0.4999999999999999    0.5000000000000000    0.5625000000000001 T T T Co
   0.0000000000000000    0.0000000000000000    0.6875000000000001 T T T Co
   0.0000000000000000    0.5000000000000000    0.6875000000000001 T T T Co
   0.4999999999999999    0.0000000000000000    0.6875000000000001 T T T Co
   0.4999999999999999    0.5000000000000000    0.6875000000000001 T T T Co
   0.3333333333333333    0.1666666666666667    0.2569681620582519 F F F H
   0.3333333333333332    0.6666666666666666    0.2569681620582519 F F F H
   0.8333333333333333    0.1666666666666667    0.2569681620582519 F F F H
   0.8333333333333330    0.6666666666666666    0.2569681620582519 F F F H
   0.1666666666666667    0.3333333333333334    0.3680318379417483 F F F H
   0.1666666666666667    0.8333333333333334    0.3680318379417483 F F F H
   0.6666666666666665    0.3333333333333334    0.3680318379417483 F F F H
   0.6666666666666667    0.8333333333333334    0.3680318379417483 F F F H
   0.3333333333333333    0.1666666666666667    0.3819681620582519 F F F H
   0.3333333333333332    0.6666666666666666    0.3819681620582519 F F F H
   0.8333333333333333    0.1666666666666667    0.3819681620582519 F F F H
   0.8333333333333330    0.6666666666666666    0.3819681620582519 F F F H
   0.1666666666666667    0.3333333333333334    0.4930318379417483 F F F H
   0.1666666666666667    0.8333333333333334    0.4930318379417483 F F F H
   0.6666666666666665    0.3333333333333334    0.4930318379417483 F F F H
   0.6666666666666667    0.8333333333333334    0.4930318379417483 F F F H
   0.3333333333333333    0.1666666666666667    0.5069681620582519 T T T H
   0.3333333333333332    0.6666666666666666    0.5069681620582519 T T T H
   0.8333333333333333    0.1666666666666667    0.5069681620582519 T T T H
   0.8333333333333330    0.6666666666666666    0.5069681620582519 T T T H
   0.1666666666666667    0.3333333333333334    0.6180318379417482 T T T H
   0.1666666666666667    0.8333333333333334    0.6180318379417482 T T T H
   0.6666666666666665    0.3333333333333334    0.6180318379417482 T T T H
   0.6666666666666667    0.8333333333333334    0.6180318379417482 T T T H
   0.3333333333333333    0.1666666666666667    0.6319681620582518 T T T H
   0.3333333333333332    0.6666666666666666    0.6319681620582518 T T T H
   0.8333333333333333    0.1666666666666667    0.6319681620582518 T T T H
   0.8333333333333330    0.6666666666666666    0.6319681620582518 T T T H
   0.1666666666666667    0.3333333333333334    0.7430318379417483 T T T H
   0.1666666666666667    0.8333333333333334    0.7430318379417483 T T T H
   0.6666666666666665    0.3333333333333334    0.7430318379417483 T T T H
   0.6666666666666667    0.8333333333333334    0.7430318379417483 T T T H
   0.3333333333333333    0.1666666666666667    0.2837579574645918 F F F O
   0.3333333333333332    0.6666666666666666    0.2837579574645918 F F F O
   0.8333333333333333    0.1666666666666667    0.2837579574645918 F F F O
   0.8333333333333330    0.6666666666666666    0.2837579574645918 F F F O
   0.1666666666666667    0.3333333333333334    0.3412420425354085 F F F O
   0.1666666666666667    0.8333333333333334    0.3412420425354085 F F F O
   0.6666666666666665    0.3333333333333334    0.3412420425354085 F F F O
   0.6666666666666667    0.8333333333333334    0.3412420425354085 F F F O
   0.3333333333333333    0.1666666666666667    0.4087579574645918 F F F O
   0.3333333333333332    0.6666666666666666    0.4087579574645918 F F F O
   0.8333333333333333    0.1666666666666667    0.4087579574645918 F F F O
   0.8333333333333330    0.6666666666666666    0.4087579574645918 F F F O
   0.1666666666666667    0.3333333333333334    0.4662420425354085 F F F O
   0.1666666666666667    0.8333333333333334    0.4662420425354085 F F F O
   0.6666666666666665    0.3333333333333334    0.4662420425354085 F F F O
   0.6666666666666667    0.8333333333333334    0.4662420425354085 F F F O
   0.3333333333333333    0.1666666666666667    0.5337579574645918 T T T O
   0.3333333333333332    0.6666666666666666    0.5337579574645918 T T T O
   0.8333333333333333    0.1666666666666667    0.5337579574645918 T T T O
   0.8333333333333330    0.6666666666666666    0.5337579574645918 T T T O
   0.1666666666666667    0.3333333333333334    0.5912420425354085 T T T O
   0.1666666666666667    0.8333333333333334    0.5912420425354085 T T T O
   0.6666666666666665    0.3333333333333334    0.5912420425354085 T T T O
   0.6666666666666667    0.8333333333333334    0.5912420425354085 T T T O
   0.3333333333333333    0.1666666666666667    0.6587579574645918 T T T O
   0.3333333333333332    0.6666666666666666    0.6587579574645918 T T T O
   0.8333333333333333    0.1666666666666667    0.6587579574645918 T T T O
   0.8333333333333330    0.6666666666666666    0.6587579574645918 T T T O
   0.1666666666666667    0.3333333333333334    0.7162420425354085 T T T O
   0.1666666666666667    0.8333333333333334    0.7162420425354085 T T T O
   0.6666666666666665    0.3333333333333334    0.7162420425354085 T T T O
   0.6666666666666667    0.8333333333333334    0.7162420425354085 T T T O
