Co15 Ni1 H16 O32                        
   1.0000000000000000     
     5.6977452034080489    0.0000000000000000    0.0000000000000003
    -0.0000000000000006    9.2190899832277964   -0.4407871102770392
     0.0000000000000000    0.0000000000000000   27.6936133766900419
  Co              Ni              H               O             
    15     1    16    32
Selective dynamics
Direct
  0.3750864133331231  0.8734341688967473  0.6249861017979543   T   T   T
  0.8749988019194342  0.3709604991245400  0.6254468614260862   T   T   T
  0.8750774554607813  0.8740243030299262  0.6250637405835315   T   T   T
  0.1247242850570219  0.4546547107668785  0.5427947476378113   T   T   T
  0.1265988224609333  0.9558933889435253  0.5427493230733863   T   T   T
  0.6251733688918741  0.4546602119072670  0.5427772946153483   T   T   T
  0.6233656607052399  0.9558903503606236  0.5427540511030422   T   T   T
  0.3750000000000000  0.0416666666666643  0.4583333333333357   F   F   F
  0.3750000000000000  0.5416666666666643  0.4583333333333357   F   F   F
  0.8750000000000000  0.0416666666666643  0.4583333333333357   F   F   F
  0.8750000000000000  0.5416666666666643  0.4583333333333357   F   F   F
  0.1250000000000000  0.1250000000000000  0.3750000000000000   F   F   F
  0.1250000000000000  0.6250000000000000  0.3750000000000000   F   F   F
  0.6250000000000000  0.1250000000000000  0.3750000000000000   F   F   F
  0.6250000000000000  0.6250000000000000  0.3750000000000000   F   F   F
  0.3750457930267109  0.3715888585778106  0.6273140866823763   T   T   T
  0.1261354127242917  0.1544921669744009  0.6339056853790799   T   T   T
  0.1254392523324765  0.6558254908082812  0.6336258860479028   T   T   T
  0.6239351140339195  0.1545224986386177  0.6339250729774182   T   T   T
  0.6247953192206867  0.6558321245930951  0.6336401053478172   T   T   T
  0.3749433662235092  0.2113471251340195  0.5409494932621283   T   T   T
  0.3748944825129373  0.6930304322243966  0.5412959291412186   T   T   T
  0.8749038473018944  0.1911334364376948  0.5408719671937323   T   T   T
  0.8749193287228303  0.6950552693790284  0.5418179937090407   T   T   T
  0.1250000000000000  0.2916666666666643  0.4583333333333357   F   F   F
  0.1250000000000000  0.7916666666666643  0.4583333333333357   F   F   F
  0.6250000000000000  0.2916666666666643  0.4583333333333357   F   F   F
  0.6250000000000000  0.7916666666666643  0.4583333333333357   F   F   F
  0.3750000000000000  0.3750000000000000  0.3750000000000000   F   F   F
  0.3750000000000000  0.8750000000000000  0.3750000000000000   F   F   F
  0.8750000000000000  0.3750000000000000  0.3750000000000000   F   F   F
  0.8750000000000000  0.8750000000000000  0.3750000000000000   F   F   F
  0.1255303777556459  0.0012305215467660  0.6111217941669175   T   T   T
  0.1261827344177281  0.4979306282686773  0.6110282973089749   T   T   T
  0.6245989946084438  0.0012452268184012  0.6111135226218229   T   T   T
  0.6238397010837510  0.4979322286484800  0.6110314073462236   T   T   T
  0.1230777126589166  0.2594969085915124  0.6484696342241076   T   T   T
  0.1252583763032844  0.7613172331450446  0.6461556851476027   T   T   T
  0.6270342930738382  0.2594818168500410  0.6484904733492244   T   T   T
  0.6250047415201809  0.7613406641805047  0.6461637629879156   T   T   T
  0.3749446651104670  0.0811984136363964  0.5263589007344084   T   T   T
  0.3748671327178992  0.5812324487767248  0.5267652259082647   T   T   T
  0.8749024971277123  0.0811309672966853  0.5265934411037010   T   T   T
  0.8749284197608890  0.5819298849425516  0.5270528193993886   T   T   T
  0.3749485303787933  0.3279219023515481  0.5555940564123946   T   T   T
  0.3749744022761386  0.8300510069954626  0.5578602155801462   T   T   T
  0.8749252908725722  0.3303057544995547  0.5579768267771067   T   T   T
  0.8749965541231615  0.8302977605774772  0.5579463581737031   T   T   T
  0.1250000000000000  0.1680566799999994  0.4428820850000008   F   F   F
  0.1250000000000000  0.6680566799999994  0.4428820850000008   F   F   F
  0.6250000000000000  0.1680566799999994  0.4428820850000008   F   F   F
  0.6250000000000000  0.6680566799999994  0.4428820850000008   F   F   F
  0.1250000000000000  0.4152766533333363  0.4737845816666635   F   F   F
  0.1250000000000000  0.9152766533333363  0.4737845816666635   F   F   F
  0.6250000000000000  0.4152766533333363  0.4737845816666635   F   F   F
  0.6250000000000000  0.9152766533333363  0.4737845816666635   F   F   F
  0.3750000000000000  0.2513900133333351  0.3595487516666651   F   F   F
  0.3750000000000000  0.7513900133333351  0.3595487516666651   F   F   F
  0.8750000000000000  0.2513900133333351  0.3595487516666651   F   F   F
  0.8750000000000000  0.7513900133333351  0.3595487516666651   F   F   F
  0.3750000000000000  0.4986099866666649  0.3904512483333349   F   F   F
  0.3750000000000000  0.9986099866666649  0.3904512483333349   F   F   F
  0.8750000000000000  0.4986099866666649  0.3904512483333349   F   F   F
  0.8750000000000000  0.9986099866666649  0.3904512483333349   F   F   F

  0.00000000E+00  0.00000000E+00  0.00000000E+00
  0.00000000E+00  0.00000000E+00  0.00000000E+00
  0.00000000E+00  0.00000000E+00  0.00000000E+00
  0.00000000E+00  0.00000000E+00  0.00000000E+00
  0.00000000E+00  0.00000000E+00  0.00000000E+00
  0.00000000E+00  0.00000000E+00  0.00000000E+00
  0.00000000E+00  0.00000000E+00  0.00000000E+00
  0.00000000E+00  0.00000000E+00  0.00000000E+00
  0.00000000E+00  0.00000000E+00  0.00000000E+00
  0.00000000E+00  0.00000000E+00  0.00000000E+00
  0.00000000E+00  0.00000000E+00  0.00000000E+00
  0.00000000E+00  0.00000000E+00  0.00000000E+00
  0.00000000E+00  0.00000000E+00  0.00000000E+00
  0.00000000E+00  0.00000000E+00  0.00000000E+00
  0.00000000E+00  0.00000000E+00  0.00000000E+00
  0.00000000E+00  0.00000000E+00  0.00000000E+00
  0.00000000E+00  0.00000000E+00  0.00000000E+00
  0.00000000E+00  0.00000000E+00  0.00000000E+00
  0.00000000E+00  0.00000000E+00  0.00000000E+00
  0.00000000E+00  0.00000000E+00  0.00000000E+00
  0.00000000E+00  0.00000000E+00  0.00000000E+00
  0.00000000E+00  0.00000000E+00  0.00000000E+00
  0.00000000E+00  0.00000000E+00  0.00000000E+00
  0.00000000E+00  0.00000000E+00  0.00000000E+00
  0.00000000E+00  0.00000000E+00  0.00000000E+00
  0.00000000E+00  0.00000000E+00  0.00000000E+00
  0.00000000E+00  0.00000000E+00  0.00000000E+00
  0.00000000E+00  0.00000000E+00  0.00000000E+00
  0.00000000E+00  0.00000000E+00  0.00000000E+00
  0.00000000E+00  0.00000000E+00  0.00000000E+00
  0.00000000E+00  0.00000000E+00  0.00000000E+00
  0.00000000E+00  0.00000000E+00  0.00000000E+00
  0.00000000E+00  0.00000000E+00  0.00000000E+00
  0.00000000E+00  0.00000000E+00  0.00000000E+00
  0.00000000E+00  0.00000000E+00  0.00000000E+00
  0.00000000E+00  0.00000000E+00  0.00000000E+00
  0.00000000E+00  0.00000000E+00  0.00000000E+00
  0.00000000E+00  0.00000000E+00  0.00000000E+00
  0.00000000E+00  0.00000000E+00  0.00000000E+00
  0.00000000E+00  0.00000000E+00  0.00000000E+00
  0.00000000E+00  0.00000000E+00  0.00000000E+00
  0.00000000E+00  0.00000000E+00  0.00000000E+00
  0.00000000E+00  0.00000000E+00  0.00000000E+00
  0.00000000E+00  0.00000000E+00  0.00000000E+00
  0.00000000E+00  0.00000000E+00  0.00000000E+00
  0.00000000E+00  0.00000000E+00  0.00000000E+00
  0.00000000E+00  0.00000000E+00  0.00000000E+00
  0.00000000E+00  0.00000000E+00  0.00000000E+00
  0.00000000E+00  0.00000000E+00  0.00000000E+00
  0.00000000E+00  0.00000000E+00  0.00000000E+00
  0.00000000E+00  0.00000000E+00  0.00000000E+00
  0.00000000E+00  0.00000000E+00  0.00000000E+00
  0.00000000E+00  0.00000000E+00  0.00000000E+00
  0.00000000E+00  0.00000000E+00  0.00000000E+00
  0.00000000E+00  0.00000000E+00  0.00000000E+00
  0.00000000E+00  0.00000000E+00  0.00000000E+00
  0.00000000E+00  0.00000000E+00  0.00000000E+00
  0.00000000E+00  0.00000000E+00  0.00000000E+00
  0.00000000E+00  0.00000000E+00  0.00000000E+00
  0.00000000E+00  0.00000000E+00  0.00000000E+00
  0.00000000E+00  0.00000000E+00  0.00000000E+00
  0.00000000E+00  0.00000000E+00  0.00000000E+00
  0.00000000E+00  0.00000000E+00  0.00000000E+00
  0.00000000E+00  0.00000000E+00  0.00000000E+00
