Co16 H17 O34                            
   1.0000000000000000     
     5.6977452034080489    0.0000000000000000    0.0000000000000003
    -0.0000000000000006    9.2190899832277964   -0.4407871102770392
     0.0000000000000000    0.0000000000000000   27.6936133766900419
  Co              H               O             
    16    17    34
Selective dynamics
Direct
  0.3749830522895896  0.3882017547478895  0.6295100766502335   T   T   T
  0.3758430170546505  0.8784844014033778  0.6254193048225126   T   T   T
  0.8726662714334453  0.3808853899988008  0.6250853148555159   T   T   T
  0.8780226107240846  0.8814498236611950  0.6277572302296892   T   T   T
  0.1225127027558742  0.4577703946151700  0.5430944491331384   T   T   T
  0.1258876325848971  0.9575964692302257  0.5424876617730953   T   T   T
  0.6250502104737511  0.4575191928151061  0.5430165731999868   T   T   T
  0.6245792339625448  0.9573588794630747  0.5425179940080337   T   T   T
  0.3750000000000000  0.0416666699999979  0.4583333300000021   F   F   F
  0.3750000000000000  0.5416666699999979  0.4583333300000021   F   F   F
  0.8750000000000000  0.0416666699999979  0.4583333300000021   F   F   F
  0.8750000000000000  0.5416666699999979  0.4583333300000021   F   F   F
  0.1250000000000000  0.1250000000000000  0.3750000000000000   F   F   F
  0.1250000000000000  0.6250000000000000  0.3750000000000000   F   F   F
  0.6250000000000000  0.1250000000000000  0.3750000000000000   F   F   F
  0.6250000000000000  0.6250000000000000  0.3750000000000000   F   F   F
  0.1267285290066548  0.1649542934231256  0.6307782380133631   T   T   T
  0.1211047149739914  0.6628860268804708  0.6356576866378565   T   T   T
  0.6188217615981217  0.1626119422003066  0.6296505492214338   T   T   T
  0.6249794530279121  0.6632968074956158  0.6342293847078760   T   T   T
  0.3740089877147837  0.1996977176939272  0.5430828867394356   T   T   T
  0.3746156014244145  0.6919404193978900  0.5408282743535224   T   T   T
  0.8748062801353012  0.1948671039468800  0.5411476815436943   T   T   T
  0.8737234772542041  0.7144219814046687  0.5408056410334378   T   T   T
  0.1250000000000000  0.2916666699999979  0.4583333300000021   F   F   F
  0.1250000000000000  0.7916666699999979  0.4583333300000021   F   F   F
  0.6250000000000000  0.2916666699999979  0.4583333300000021   F   F   F
  0.6250000000000000  0.7916666699999979  0.4583333300000021   F   F   F
  0.3750000000000000  0.3750000000000000  0.3750000000000000   F   F   F
  0.3750000000000000  0.8750000000000000  0.3750000000000000   F   F   F
  0.8750000000000000  0.3750000000000000  0.3750000000000000   F   F   F
  0.8750000000000000  0.8750000000000000  0.3750000000000000   F   F   F
  0.5670512393259484  0.4603692590406538  0.7425837021497711   T   T   T
  0.1249477272291978  1.0055124274151579  0.6105519581625354   T   T   T
  0.1214889010098456  0.5086672755992805  0.6106263161469773   T   T   T
  0.6275678189082564  1.0051816708523795  0.6108326319495779   T   T   T
  0.6248552792935427  0.5082775874740701  0.6103295434677947   T   T   T
  0.1193698097652489  0.2675073029503217  0.6459974530906730   T   T   T
  0.1248591262284322  0.7682632367341866  0.6492981309893353   T   T   T
  0.6248085026020792  0.2658534526562260  0.6448862691551188   T   T   T
  0.6233328825565156  0.7680561934070487  0.6483001066310580   T   T   T
  0.3753979006015406  0.0858493274934819  0.5269631636042398   T   T   T
  0.3741084374356026  0.5828098317344913  0.5265066546400844   T   T   T
  0.8749146963276314  0.0837371888223994  0.5264292589752134   T   T   T
  0.8738562403034639  0.5825243874507050  0.5259721435564102   T   T   T
  0.3730358687280604  0.3326698920788597  0.5611321796070168   T   T   T
  0.3751544636648941  0.8333856440301015  0.5582193851077721   T   T   T
  0.8741063602623734  0.3329454827801551  0.5584328837034450   T   T   T
  0.8748262120792004  0.8301651904246639  0.5553378072526709   T   T   T
  0.1250000000000000  0.1680566799999994  0.4428820899999977   F   F   F
  0.1250000000000000  0.6680566799999994  0.4428820899999977   F   F   F
  0.6250000000000000  0.1680566799999994  0.4428820899999977   F   F   F
  0.6250000000000000  0.6680566799999994  0.4428820899999977   F   F   F
  0.1250000000000000  0.4152766500000027  0.4737845800000002   F   F   F
  0.1250000000000000  0.9152766500000027  0.4737845800000002   F   F   F
  0.6250000000000000  0.4152766500000027  0.4737845800000002   F   F   F
  0.6250000000000000  0.9152766500000027  0.4737845800000002   F   F   F
  0.3750000000000000  0.2513900100000015  0.3595487500000019   F   F   F
  0.3750000000000000  0.7513900100000015  0.3595487500000019   F   F   F
  0.8750000000000000  0.2513900100000015  0.3595487500000019   F   F   F
  0.8750000000000000  0.7513900100000015  0.3595487500000019   F   F   F
  0.3750000000000000  0.4986099899999985  0.3904512499999981   F   F   F
  0.3750000000000000  0.9986099899999985  0.3904512499999981   F   F   F
  0.8750000000000000  0.4986099899999985  0.3904512499999981   F   F   F
  0.8750000000000000  0.9986099899999985  0.3904512499999981   F   F   F
  0.3608192844982591  0.4629478423100803  0.6902295921246655   T   T   T
  0.5850671139986917  0.4986300345778564  0.7103479264524011   T   T   T

  0.00000000E+00  0.00000000E+00  0.00000000E+00
  0.00000000E+00  0.00000000E+00  0.00000000E+00
  0.00000000E+00  0.00000000E+00  0.00000000E+00
  0.00000000E+00  0.00000000E+00  0.00000000E+00
  0.00000000E+00  0.00000000E+00  0.00000000E+00
  0.00000000E+00  0.00000000E+00  0.00000000E+00
  0.00000000E+00  0.00000000E+00  0.00000000E+00
  0.00000000E+00  0.00000000E+00  0.00000000E+00
  0.00000000E+00  0.00000000E+00  0.00000000E+00
  0.00000000E+00  0.00000000E+00  0.00000000E+00
  0.00000000E+00  0.00000000E+00  0.00000000E+00
  0.00000000E+00  0.00000000E+00  0.00000000E+00
  0.00000000E+00  0.00000000E+00  0.00000000E+00
  0.00000000E+00  0.00000000E+00  0.00000000E+00
  0.00000000E+00  0.00000000E+00  0.00000000E+00
  0.00000000E+00  0.00000000E+00  0.00000000E+00
  0.00000000E+00  0.00000000E+00  0.00000000E+00
  0.00000000E+00  0.00000000E+00  0.00000000E+00
  0.00000000E+00  0.00000000E+00  0.00000000E+00
  0.00000000E+00  0.00000000E+00  0.00000000E+00
  0.00000000E+00  0.00000000E+00  0.00000000E+00
  0.00000000E+00  0.00000000E+00  0.00000000E+00
  0.00000000E+00  0.00000000E+00  0.00000000E+00
  0.00000000E+00  0.00000000E+00  0.00000000E+00
  0.00000000E+00  0.00000000E+00  0.00000000E+00
  0.00000000E+00  0.00000000E+00  0.00000000E+00
  0.00000000E+00  0.00000000E+00  0.00000000E+00
  0.00000000E+00  0.00000000E+00  0.00000000E+00
  0.00000000E+00  0.00000000E+00  0.00000000E+00
  0.00000000E+00  0.00000000E+00  0.00000000E+00
  0.00000000E+00  0.00000000E+00  0.00000000E+00
  0.00000000E+00  0.00000000E+00  0.00000000E+00
  0.00000000E+00  0.00000000E+00  0.00000000E+00
  0.00000000E+00  0.00000000E+00  0.00000000E+00
  0.00000000E+00  0.00000000E+00  0.00000000E+00
  0.00000000E+00  0.00000000E+00  0.00000000E+00
  0.00000000E+00  0.00000000E+00  0.00000000E+00
  0.00000000E+00  0.00000000E+00  0.00000000E+00
  0.00000000E+00  0.00000000E+00  0.00000000E+00
  0.00000000E+00  0.00000000E+00  0.00000000E+00
  0.00000000E+00  0.00000000E+00  0.00000000E+00
  0.00000000E+00  0.00000000E+00  0.00000000E+00
  0.00000000E+00  0.00000000E+00  0.00000000E+00
  0.00000000E+00  0.00000000E+00  0.00000000E+00
  0.00000000E+00  0.00000000E+00  0.00000000E+00
  0.00000000E+00  0.00000000E+00  0.00000000E+00
  0.00000000E+00  0.00000000E+00  0.00000000E+00
  0.00000000E+00  0.00000000E+00  0.00000000E+00
  0.00000000E+00  0.00000000E+00  0.00000000E+00
  0.00000000E+00  0.00000000E+00  0.00000000E+00
  0.00000000E+00  0.00000000E+00  0.00000000E+00
  0.00000000E+00  0.00000000E+00  0.00000000E+00
  0.00000000E+00  0.00000000E+00  0.00000000E+00
  0.00000000E+00  0.00000000E+00  0.00000000E+00
  0.00000000E+00  0.00000000E+00  0.00000000E+00
  0.00000000E+00  0.00000000E+00  0.00000000E+00
  0.00000000E+00  0.00000000E+00  0.00000000E+00
  0.00000000E+00  0.00000000E+00  0.00000000E+00
  0.00000000E+00  0.00000000E+00  0.00000000E+00
  0.00000000E+00  0.00000000E+00  0.00000000E+00
  0.00000000E+00  0.00000000E+00  0.00000000E+00
  0.00000000E+00  0.00000000E+00  0.00000000E+00
  0.00000000E+00  0.00000000E+00  0.00000000E+00
  0.00000000E+00  0.00000000E+00  0.00000000E+00
  0.00000000E+00  0.00000000E+00  0.00000000E+00
  0.00000000E+00  0.00000000E+00  0.00000000E+00
  0.00000000E+00  0.00000000E+00  0.00000000E+00
