ALGO = All
DIPOL = 0.5 0.5 0.5061
EDIFF = 1e-06
EDIFFG = -0.02
ENCUT = 520.0
IDIPOL = 3
ISIF = 2
ISMEAR = 0
ISPIN = 2
IVDW = 12
LDAU = True
LDAUJ = 0.0 0.0 0.0 0.0
LDAUL = 2 2 -1 -1
LDAUPRINT = 1
LDAUTYPE = 2
LDAUU = 3.32 6.2 0.0 0.0
LDIPOL = True
LMAXMIX = 4
LORBIT = 11
LREAL = Auto
LWAVE = False
NELM = 200
PREC = Accurate
SIGMA = 0.05
LASPH = True
AMIX = 0.2
BMIX = 0.0001
AMIX_MAG = 0.8
BMIX_MAG = 0.0001
ISYM = 0
MAGMOM = 0.5 0.5 0.5 0.5 0.5 0.5 0.5 0.5 0.5 0.5 0.5 0.5 0.5 0.5 0.5 0.5 0.0 0.0 0.0 0.0 0.0 0.0 0.0 0.0 0.0 0.0 0.0 0.0 0.0 0.0 0.0 0.0 0.0 0.0 0.0 0.0 0.0 0.0 0.0 0.0 0.0 0.0 0.0 0.0 0.0 0.0 0.0 0.0 0.0 0.0 0.0 0.0 0.0 0.0 0.0 0.0 0.0 0.0 0.0 0.0 0.0 0.0 0.0 0.0 0.0 0.0
NUPDOWN = 0
IBRION = 1
NSW = 90
LCHARG = False
KPAR = 2
NCORE = 8
# active-site test: ni_onCo
