site-search slab
1.0
  5.6977452034080489  0.0000000000000000  0.0000000000000003
  -0.0000000000000006  9.2190899832277964  -0.4407871102770392
  0.0000000000000000  0.0000000000000000  27.6936133766900419
  Co  Ni  H  O
  15  1  17  33
Selective dynamics
Direct
  0.3750216387737099  0.8749526640131348  0.6252706573296254   T T T
  0.8785321579193451  0.3740199903221272  0.6247685328284694   T T T
  0.8749897303160656  0.8748943219712976  0.6251386833371584   T T T
  0.1267219728514588  0.4551918797062953  0.5430141445046077   T T T
  0.1255584158855730  0.9559088292445230  0.5427850771835415   T T T
  0.6257505380027736  0.4550659620458756  0.5430133954678954   T T T
  0.6244171877331487  0.9561322365734441  0.5428321526059667   T T T
  0.3750000000000000  0.0416666666666643  0.4583333333333357   F F F
  0.3750000000000000  0.5416666666666643  0.4583333333333357   F F F
  0.8750000000000000  0.0416666666666643  0.4583333333333357   F F F
  0.8750000000000000  0.5416666666666643  0.4583333333333357   F F F
  0.1250000000000000  0.1250000000000000  0.3750000000000000   F F F
  0.1250000000000000  0.6250000000000000  0.3750000000000000   F F F
  0.6250000000000000  0.1250000000000000  0.3750000000000000   F F F
  0.6250000000000000  0.6250000000000000  0.3750000000000000   F F F
  0.3782345448366131  0.3809264634897598  0.6281868151660879   T T T
  0.1326460353714811  0.1564787748608796  0.6291265358563548   T T T
  0.1284652236637052  0.6581559872282856  0.6359757742739729   T T T
  0.6204433285928591  0.1565243469853224  0.6302087783063979   T T T
  0.6219414247562199  0.6582518053764250  0.6364973991091247   T T T
  0.3753110284714897  0.1976298902991650  0.5421637202177823   T T T
  0.3755339483929421  0.6933897554176300  0.5413747313446837   T T T
  0.8756070863523124  0.1926695708067711  0.5409740082565707   T T T
  0.8752883194473933  0.6939164758155343  0.5413056395030130   T T T
  0.1250000000000000  0.2916666666666643  0.4583333333333357   F F F
  0.1250000000000000  0.7916666666666643  0.4583333333333357   F F F
  0.6250000000000000  0.2916666666666643  0.4583333333333357   F F F
  0.6250000000000000  0.7916666666666643  0.4583333333333357   F F F
  0.3750000000000000  0.3750000000000000  0.3750000000000000   F F F
  0.3750000000000000  0.8750000000000000  0.3750000000000000   F F F
  0.8750000000000000  0.3750000000000000  0.3750000000000000   F F F
  0.8750000000000000  0.8750000000000000  0.3750000000000000   F F F
  0.9773467923532498  0.3937759326343122  0.7038369180215013   T T T
  0.1254235150696345  0.0018189467723755  0.6105037115514503   T T T
  0.1281206350753701  0.5012105643677062  0.6103375084249854   T T T
  0.6245926575024555  0.0024216562821441  0.6106633937133320   T T T
  0.6276644124719524  0.5010958606690721  0.6101455072492643   T T T
  0.1267612079073348  0.2602292080529168  0.6448736106354742   T T T
  0.1249986590164514  0.7646699237601045  0.6467542034972076   T T T
  0.6283314728186862  0.2609089229629858  0.6455986870521396   T T T
  0.6251012614991894  0.7649889928543754  0.6468871087980003   T T T
  0.3749078878537477  0.0830381743227078  0.5266548267152337   T T T
  0.3758865445312538  0.5816934540857284  0.5267595444401846   T T T
  0.8749951647681973  0.0819810235311306  0.5265368646948889   T T T
  0.8758839041903190  0.5819267691577719  0.5266916099280045   T T T
  0.3760298613465557  0.3291497830306275  0.5592205218803510   T T T
  0.3751793580952397  0.8307753868400727  0.5578901611363737   T T T
  0.8763973950997954  0.3307536909869799  0.5577960930273996   T T T
  0.8748411527351171  0.8307735474561297  0.5578562820565038   T T T
  0.1250000000000000  0.1680566799999994  0.4428820850000008   F F F
  0.1250000000000000  0.6680566799999994  0.4428820850000008   F F F
  0.6250000000000000  0.1680566799999994  0.4428820850000008   F F F
  0.6250000000000000  0.6680566799999994  0.4428820850000008   F F F
  0.1250000000000000  0.4152766533333363  0.4737845816666635   F F F
  0.1250000000000000  0.9152766533333363  0.4737845816666635   F F F
  0.6250000000000000  0.4152766533333363  0.4737845816666635   F F F
  0.6250000000000000  0.9152766533333363  0.4737845816666635   F F F
  0.3750000000000000  0.2513900133333351  0.3595487516666651   F F F
  0.3750000000000000  0.7513900133333351  0.3595487516666651   F F F
  0.8750000000000000  0.2513900133333351  0.3595487516666651   F F F
  0.8750000000000000  0.7513900133333351  0.3595487516666651   F F F
  0.3750000000000000  0.4986099866666649  0.3904512483333349   F F F
  0.3750000000000000  0.9986099866666649  0.3904512483333349   F F F
  0.8750000000000000  0.4986099866666649  0.3904512483333349   F F F
  0.8750000000000000  0.9986099866666649  0.3904512483333349   F F F
  0.8804470712350438  0.4586703458021494  0.6852960087665398   T T T
