Co H  O 
 1.0000000000000000
     5.6977452034080489    0.0000000000000000    0.0000000000000003
    -0.0000000000000006    9.2190899832277964   -0.4407871102770392
     0.0000000000000000    0.0000000000000000   27.6936133766900419
 Co  H   O  
  16  16  32
Selective dynamics
Direct
  0.3752635079495058  0.3785810644187262  0.6251375304456355   T   T   T
  0.3752630099960889  0.8785777425216426  0.6251349762288876   T   T   T
  0.8752630338586161  0.3785829492371183  0.6251359831494817   T   T   T
  0.8752637896368973  0.8785785853902323  0.6251357453192713   T   T   T
  0.1249809227430357  0.4587373485481641  0.5434065348185350   T   T   T
  0.1249831601802198  0.9587369080389319  0.5434072601068305   T   T   T
  0.6249816367861417  0.4587372830469686  0.5434066225569940   T   T   T
  0.6249794924399602  0.9587362845517963  0.5434074348616972   T   T   T
  0.3750000000000001  0.0416666666666643  0.4583333333333357   F   F   F
  0.3750000000000001  0.5416666666666643  0.4583333333333357   F   F   F
  0.8750000000000001  0.0416666666666643  0.4583333333333357   F   F   F
  0.8750000000000001  0.5416666666666643  0.4583333333333357   F   F   F
  0.1250000000000000  0.1250000000000000  0.3750000000000000   F   F   F
  0.1250000000000000  0.6250000000000000  0.3750000000000000   F   F   F
  0.6250000000000000  0.1250000000000000  0.3750000000000000   F   F   F
  0.6250000000000000  0.6250000000000000  0.3750000000000000   F   F   F
  0.1251558842703727  0.1608824340148821  0.6332081095711989   T   T   T
  0.1251569720679314  0.6608690545818124  0.6332003724400543   T   T   T
  0.6251581780600018  0.1608821138838273  0.6332082302616449   T   T   T
  0.6251585570140019  0.6608688171771603  0.6332013274968015   T   T   T
  0.3749803407787622  0.1938090255391743  0.5419766797047326   T   T   T
  0.3749797207628731  0.6938132843363057  0.5419745783677831   T   T   T
  0.8749804177678178  0.1938086067494698  0.5419759961298752   T   T   T
  0.8749820880784668  0.6938126955096718  0.5419747708622947   T   T   T
  0.1250000000000000  0.2916666666666643  0.4583333333333357   F   F   F
  0.1250000000000000  0.7916666666666643  0.4583333333333357   F   F   F
  0.6250000000000000  0.2916666666666643  0.4583333333333357   F   F   F
  0.6250000000000000  0.7916666666666643  0.4583333333333357   F   F   F
  0.3750000000000001  0.3750000000000000  0.3750000000000000   F   F   F
  0.3750000000000001  0.8749999999999999  0.3750000000000000   F   F   F
  0.8750000000000001  0.3750000000000000  0.3750000000000000   F   F   F
  0.8750000000000001  0.8749999999999999  0.3750000000000000   F   F   F
  0.1252599001821955  0.0058221399898659  0.6106854555001463   T   T   T
  0.1252617267890857  0.5058215244818998  0.6106845838645276   T   T   T
  0.6252560443363420  0.0058219762496373  0.6106854690727193   T   T   T
  0.6252607672270065  0.5058209757729796  0.6106846356001280   T   T   T
  0.1253057279644423  0.2667143589871369  0.6459083351470449   T   T   T
  0.1253045365788407  0.7667117506920784  0.6459028037837091   T   T   T
  0.6253008356629546  0.2667136490484309  0.6459082961855231   T   T   T
  0.6253040507091254  0.7667130462101682  0.6459028206474960   T   T   T
  0.3748857285150132  0.0848110636784294  0.5267372849781102   T   T   T
  0.3748875036029762  0.5848078867481999  0.5267370462386143   T   T   T
  0.8748852751055045  0.0848133820582474  0.5267372993389525   T   T   T
  0.8748876256471619  0.5848100419522599  0.5267367668899064   T   T   T
  0.3749208430498860  0.3345763179192526  0.5594155771541647   T   T   T
  0.3749174423504369  0.8345795848439919  0.5594144635638991   T   T   T
  0.8749211341132439  0.3345760030391934  0.5594169864217114   T   T   T
  0.8749187849646007  0.8345798507041708  0.5594150726548349   T   T   T
  0.1250000000000000  0.1680566799999994  0.4428820850000008   F   F   F
  0.1250000000000000  0.6680566799999994  0.4428820850000008   F   F   F
  0.6250000000000000  0.1680566799999994  0.4428820850000008   F   F   F
  0.6250000000000000  0.6680566799999994  0.4428820850000008   F   F   F
  0.1250000000000000  0.4152766533333363  0.4737845816666635   F   F   F
  0.1250000000000000  0.9152766533333364  0.4737845816666635   F   F   F
  0.6250000000000000  0.4152766533333363  0.4737845816666635   F   F   F
  0.6250000000000000  0.9152766533333364  0.4737845816666635   F   F   F
  0.3750000000000001  0.2513900133333352  0.3595487516666651   F   F   F
  0.3750000000000001  0.7513900133333351  0.3595487516666651   F   F   F
  0.8750000000000001  0.2513900133333352  0.3595487516666651   F   F   F
  0.8750000000000001  0.7513900133333351  0.3595487516666651   F   F   F
  0.3750000000000001  0.4986099866666649  0.3904512483333349   F   F   F
  0.3750000000000001  0.9986099866666650  0.3904512483333349   F   F   F
  0.8750000000000001  0.4986099866666649  0.3904512483333349   F   F   F
  0.8750000000000001  0.9986099866666650  0.3904512483333349   F   F   F
