Co H  O 
 1.0000000000000000
     5.6977452034080489    0.0000000000000000    0.0000000000000003
    -0.0000000000000006    9.2190899832277964   -0.4407871102770392
     0.0000000000000000    0.0000000000000000   27.6936133766900419
 Co  H   O  
  16  17  34
Selective dynamics
Direct
  0.3734491183747691  0.3972146248135813  0.6317094723537847   T   T   T
  0.3735964949131741  0.8856815501015879  0.6281803200869528   T   T   T
  0.8694483479953782  0.3901403246726913  0.6274204475190961   T   T   T
  0.8745427053471354  0.8879113846379008  0.6300987900025961   T   T   T
  0.1199832837273058  0.4621502115271152  0.5451520322649425   T   T   T
  0.1252891121508766  0.9589313390626291  0.5424202116439280   T   T   T
  0.6220414086916364  0.4599155719997329  0.5435769231453099   T   T   T
  0.6237384919198304  0.9588854128129904  0.5424071152357295   T   T   T
  0.3750000000000001  0.0416666699999979  0.4583333300000021   F   F   F
  0.3750000000000001  0.5416666699999979  0.4583333300000021   F   F   F
  0.8750000000000001  0.0416666699999979  0.4583333300000021   F   F   F
  0.8750000000000001  0.5416666699999979  0.4583333300000021   F   F   F
  0.1250000000000000  0.1250000000000000  0.3750000000000000   F   F   F
  0.1250000000000000  0.6250000000000000  0.3750000000000000   F   F   F
  0.6250000000000000  0.1250000000000000  0.3750000000000000   F   F   F
  0.6250000000000000  0.6250000000000000  0.3750000000000000   F   F   F
  0.1262744205103253  0.1760227351234139  0.6331399467897341   T   T   T
  0.1221813970328361  0.6715891984452826  0.6406780150618081   T   T   T
  0.6181659070740767  0.1711055650368732  0.6309785438612804   T   T   T
  0.6235550893368270  0.6720358795733204  0.6377162037582133   T   T   T
  0.3704370658350797  0.1965945061999326  0.5423276433264845   T   T   T
  0.3811334410948143  0.7041492848237628  0.5386521160020596   T   T   T
  0.8691830648172197  0.1965098125681473  0.5429693078230297   T   T   T
  0.8742060245639413  0.7197162535035683  0.5415904006042965   T   T   T
  0.1250000000000000  0.2916666699999980  0.4583333300000020   F   F   F
  0.1250000000000000  0.7916666699999979  0.4583333300000020   F   F   F
  0.6250000000000000  0.2916666699999980  0.4583333300000020   F   F   F
  0.6250000000000000  0.7916666699999979  0.4583333300000020   F   F   F
  0.3750000000000001  0.3750000000000000  0.3750000000000000   F   F   F
  0.3750000000000001  0.8749999999999999  0.3750000000000000   F   F   F
  0.8750000000000001  0.3750000000000000  0.3750000000000000   F   F   F
  0.8750000000000001  0.8749999999999999  0.3750000000000000   F   F   F
  0.6395199409294924  0.3831541309659943  0.7172294309565996   T   T   T
  0.1242087904829444  0.0099340624127523  0.6112497998916215   T   T   T
  0.1180778454004044  0.5191273762898218  0.6158552525464523   T   T   T
  0.6240543265653014  0.0091611059842407  0.6109744316845989   T   T   T
  0.6217797759831823  0.5153428841103296  0.6110073777910561   T   T   T
  0.1189336264368126  0.2768215219966324  0.6489812732310982   T   T   T
  0.1245634563673477  0.7787235312393523  0.6533849595251566   T   T   T
  0.6226047079111312  0.2715660414041804  0.6475305168059035   T   T   T
  0.6233347709016321  0.7761408688263364  0.6521454919000309   T   T   T
  0.3742907729691378  0.0877729075203304  0.5268625641029157   T   T   T
  0.3811923603729294  0.5880940940815497  0.5253534680933922   T   T   T
  0.8742291319460369  0.0856333063169299  0.5265537684211595   T   T   T
  0.8729997220816132  0.5828357671206281  0.5262641299279769   T   T   T
  0.3665385269006663  0.3388408215888191  0.5629652761147218   T   T   T
  0.3746839430176054  0.8341173698192935  0.5562028224993655   T   T   T
  0.8630144055427212  0.3310218386230309  0.5615494619485408   T   T   T
  0.8744048376200170  0.8324297342591228  0.5559151146884614   T   T   T
  0.1250000000000000  0.1680566799999994  0.4428820899999977   F   F   F
  0.1250000000000000  0.6680566799999994  0.4428820899999977   F   F   F
  0.6250000000000000  0.1680566799999994  0.4428820899999977   F   F   F
  0.6250000000000000  0.6680566799999994  0.4428820899999977   F   F   F
  0.1250000000000000  0.4152766500000027  0.4737845800000002   F   F   F
  0.1250000000000000  0.9152766500000027  0.4737845800000002   F   F   F
  0.6250000000000000  0.4152766500000027  0.4737845800000002   F   F   F
  0.6250000000000000  0.9152766500000027  0.4737845800000002   F   F   F
  0.3750000000000001  0.2513900100000015  0.3595487500000019   F   F   F
  0.3750000000000001  0.7513900100000015  0.3595487500000019   F   F   F
  0.8750000000000001  0.2513900100000015  0.3595487500000019   F   F   F
  0.8750000000000001  0.7513900100000015  0.3595487500000019   F   F   F
  0.3750000000000001  0.4986099899999985  0.3904512499999981   F   F   F
  0.3750000000000001  0.9986099899999985  0.3904512499999981   F   F   F
  0.8750000000000001  0.4986099899999985  0.3904512499999981   F   F   F
  0.8750000000000001  0.9986099899999985  0.3904512499999981   F   F   F
  0.3844689786628617  0.4837303457886176  0.6913892212009691   T   T   T
  0.6139515004302122  0.4868676632780515  0.7115973336441749   T   T   T
