Co H  O 
 1.0000000000000000
     5.6977452034080489    0.0000000000000000    0.0000000000000003
    -0.0000000000000006    9.2190899832277964   -0.4407871102770392
     0.0000000000000000    0.0000000000000000   27.6936133766900419
 Co  H   O  
  16  16  33
Selective dynamics
Direct
  0.3750451452971069  0.3945488321864835  0.6321807017619447   T   T   T
  0.3749232785482768  0.8818274868344936  0.6253396013369432   T   T   T
  0.8750513233574484  0.3817808472142910  0.6246774832960931   T   T   T
  0.8748553770996453  0.8838534591435440  0.6275622805477293   T   T   T
  0.1228425956904660  0.4590683795398467  0.5427175875655802   T   T   T
  0.1277226385084587  0.9598014109540006  0.5422371587523637   T   T   T
  0.6271212150360800  0.4590127229264522  0.5427264732895869   T   T   T
  0.6222611679066162  0.9598425080284575  0.5422552456057342   T   T   T
  0.3750000000000001  0.0416666666666643  0.4583333333333357   F   F   F
  0.3750000000000001  0.5416666666666643  0.4583333333333357   F   F   F
  0.8750000000000001  0.0416666666666643  0.4583333333333357   F   F   F
  0.8750000000000001  0.5416666666666643  0.4583333333333357   F   F   F
  0.1250000000000000  0.1250000000000000  0.3750000000000000   F   F   F
  0.1250000000000000  0.6250000000000000  0.3750000000000000   F   F   F
  0.6250000000000000  0.1250000000000000  0.3750000000000000   F   F   F
  0.6250000000000000  0.6250000000000000  0.3750000000000000   F   F   F
  0.1330865873664952  0.1659053316590598  0.6299246246848272   T   T   T
  0.1224125565521670  0.6662589693419007  0.6358481834168869   T   T   T
  0.6169034559315087  0.1659283783979053  0.6298907826009228   T   T   T
  0.6277589628507048  0.6662832228137552  0.6359233391920196   T   T   T
  0.3749017418165714  0.2223447390212126  0.5463929508949004   T   T   T
  0.3748378236451587  0.6935630844894870  0.5405930314259377   T   T   T
  0.8749816619992563  0.1940735964187333  0.5405704917266864   T   T   T
  0.8751060325497185  0.7219279968102417  0.5417647252700607   T   T   T
  0.1250000000000000  0.2916666666666643  0.4583333333333357   F   F   F
  0.1250000000000000  0.7916666666666643  0.4583333333333357   F   F   F
  0.6250000000000000  0.2916666666666643  0.4583333333333357   F   F   F
  0.6250000000000000  0.7916666666666643  0.4583333333333357   F   F   F
  0.3750000000000001  0.3750000000000000  0.3750000000000000   F   F   F
  0.3750000000000001  0.8749999999999999  0.3750000000000000   F   F   F
  0.8750000000000001  0.3750000000000000  0.3750000000000000   F   F   F
  0.8750000000000001  0.8749999999999999  0.3750000000000000   F   F   F
  0.1247684302663139  0.0089139027449520  0.6106163287341244   T   T   T
  0.1225833098959243  0.5104059121423302  0.6101542473610064   T   T   T
  0.6251689921142165  0.0089408043195012  0.6105799513866668   T   T   T
  0.6275202394672340  0.5103981634356026  0.6101797840344523   T   T   T
  0.1221623367081358  0.2688635847822542  0.6456999635719848   T   T   T
  0.1256843375605175  0.7718076250899831  0.6484807263855020   T   T   T
  0.6279173576893919  0.2688410504977342  0.6456821234908695   T   T   T
  0.6244035554714733  0.7718771659704198  0.6484951268014822   T   T   T
  0.3749699758494143  0.0866401731475225  0.5265653199054633   T   T   T
  0.3751365900730873  0.5837977222310058  0.5263750305933519   T   T   T
  0.8749786290322389  0.0848383496804603  0.5261793614203589   T   T   T
  0.8747758752387715  0.5830496310815644  0.5259053681142738   T   T   T
  0.3748954732759257  0.3342527282431365  0.5614076359222804   T   T   T
  0.3749857563615807  0.8347357996298497  0.5582114719411103   T   T   T
  0.8750134776138981  0.3348225657720804  0.5582804314002501   T   T   T
  0.8750093493241947  0.8331019475002469  0.5558344365565386   T   T   T
  0.1250000000000000  0.1680566799999994  0.4428820850000008   F   F   F
  0.1250000000000000  0.6680566799999994  0.4428820850000008   F   F   F
  0.6250000000000000  0.1680566799999994  0.4428820850000008   F   F   F
  0.6250000000000000  0.6680566799999994  0.4428820850000008   F   F   F
  0.1250000000000000  0.4152766533333363  0.4737845816666635   F   F   F
  0.1250000000000000  0.9152766533333364  0.4737845816666635   F   F   F
  0.6250000000000000  0.4152766533333363  0.4737845816666635   F   F   F
  0.6250000000000000  0.9152766533333364  0.4737845816666635   F   F   F
  0.3750000000000001  0.2513900133333352  0.3595487516666651   F   F   F
  0.3750000000000001  0.7513900133333351  0.3595487516666651   F   F   F
  0.8750000000000001  0.2513900133333352  0.3595487516666651   F   F   F
  0.8750000000000001  0.7513900133333351  0.3595487516666651   F   F   F
  0.3750000000000001  0.4986099866666649  0.3904512483333349   F   F   F
  0.3750000000000001  0.9986099866666650  0.3904512483333349   F   F   F
  0.8750000000000001  0.4986099866666649  0.3904512483333349   F   F   F
  0.8750000000000001  0.9986099866666650  0.3904512483333349   F   F   F
  0.3750187394681578  0.4724110529989202  0.6858785538703451   T   T   T
