Co H  O 
 1.0000000000000000
     5.6977452034080489    0.0000000000000000    0.0000000000000003
    -0.0000000000000006    9.2190899832277964   -0.4407871102770392
     0.0000000000000000    0.0000000000000000   27.6936133766900419
 Co  H   O  
  16  17  33
Selective dynamics
Direct
  0.3759682476825001  0.3939061555362106  0.6300502492080179   T   T   T
  0.3756999939885434  0.8882608175992567  0.6297452447071560   T   T   T
  0.8770646426174168  0.3865355029157370  0.6271564830167043   T   T   T
  0.8753241596529170  0.8858484363322480  0.6259964849830241   T   T   T
  0.1279809378788204  0.4593083767159942  0.5428593734433800   T   T   T
  0.1230329371140968  0.9598000310897551  0.5422609154908088   T   T   T
  0.6221683288093173  0.4590990435800469  0.5425993821384583   T   T   T
  0.6272614493393155  0.9600089428483651  0.5423742183940454   T   T   T
  0.3750000000000001  0.0416666666666643  0.4583333333333357   F   F   F
  0.3750000000000001  0.5416666666666643  0.4583333333333357   F   F   F
  0.8750000000000001  0.0416666666666643  0.4583333333333357   F   F   F
  0.8750000000000001  0.5416666666666643  0.4583333333333357   F   F   F
  0.1250000000000000  0.1250000000000000  0.3750000000000000   F   F   F
  0.1250000000000000  0.6250000000000000  0.3750000000000000   F   F   F
  0.6250000000000000  0.1250000000000000  0.3750000000000000   F   F   F
  0.6250000000000000  0.6250000000000000  0.3750000000000000   F   F   F
  0.1299707628521328  0.1664779600257001  0.6293940984576087   T   T   T
  0.1281775877419837  0.6714438149000342  0.6373348653715531   T   T   T
  0.6265435192615342  0.1713292862058459  0.6334787872067068   T   T   T
  0.6216150770311824  0.6715505497714270  0.6375009823909082   T   T   T
  0.3753571770808663  0.1957755533370525  0.5420323862622055   T   T   T
  0.3752575219529783  0.7206520047115573  0.5418497256989001   T   T   T
  0.8750888879361176  0.2185248090252023  0.5415392249618088   T   T   T
  0.8747063972329951  0.6937085011562919  0.5408199632179428   T   T   T
  0.1250000000000000  0.2916666666666643  0.4583333333333357   F   F   F
  0.1250000000000000  0.7916666666666643  0.4583333333333357   F   F   F
  0.6250000000000000  0.2916666666666643  0.4583333333333357   F   F   F
  0.6250000000000000  0.7916666666666643  0.4583333333333357   F   F   F
  0.3750000000000001  0.3750000000000000  0.3750000000000000   F   F   F
  0.3750000000000001  0.8749999999999999  0.3750000000000000   F   F   F
  0.8750000000000001  0.3750000000000000  0.3750000000000000   F   F   F
  0.8750000000000001  0.8749999999999999  0.3750000000000000   F   F   F
  0.4687059330473936  0.4134911071773558  0.7087154923767988   T   T   T
  0.1261779761370398  0.0114393888436124  0.6108153980819009   T   T   T
  0.1230620695183126  0.5128169604136604  0.6106370406145777   T   T   T
  0.6247648624857441  0.0117942316865593  0.6112284071778727   T   T   T
  0.6271721834090932  0.5111481780722817  0.6102922234181339   T   T   T
  0.1271603179325473  0.2698193583496680  0.6456791639860608   T   T   T
  0.1224752591151786  0.7760769513336087  0.6503807667818196   T   T   T
  0.6296722000251229  0.2732898056236158  0.6496185482476604   T   T   T
  0.6285934933861128  0.7757326710460156  0.6505431306263663   T   T   T
  0.3751160984740021  0.0863511741614342  0.5264154416168920   T   T   T
  0.3750498320376718  0.5840347247279587  0.5263062300693504   T   T   T
  0.8751499258236581  0.0850087635079435  0.5261411735847601   T   T   T
  0.8748983501598956  0.5845942409836740  0.5262578263633486   T   T   T
  0.3744265179150232  0.3348812832634722  0.5615603608380847   T   T   T
  0.3751883061661996  0.8333130859103238  0.5559730060234245   T   T   T
  0.8746189239523190  0.3327718730293458  0.5559869139094151   T   T   T
  0.8749931673411695  0.8354178292746363  0.5588794388094477   T   T   T
  0.1250000000000000  0.1680566799999994  0.4428820850000008   F   F   F
  0.1250000000000000  0.6680566799999994  0.4428820850000008   F   F   F
  0.6250000000000000  0.1680566799999994  0.4428820850000008   F   F   F
  0.6250000000000000  0.6680566799999994  0.4428820850000008   F   F   F
  0.1250000000000000  0.4152766533333363  0.4737845816666635   F   F   F
  0.1250000000000000  0.9152766533333364  0.4737845816666635   F   F   F
  0.6250000000000000  0.4152766533333363  0.4737845816666635   F   F   F
  0.6250000000000000  0.9152766533333364  0.4737845816666635   F   F   F
  0.3750000000000001  0.2513900133333352  0.3595487516666651   F   F   F
  0.3750000000000001  0.7513900133333351  0.3595487516666651   F   F   F
  0.8750000000000001  0.2513900133333352  0.3595487516666651   F   F   F
  0.8750000000000001  0.7513900133333351  0.3595487516666651   F   F   F
  0.3750000000000001  0.4986099866666649  0.3904512483333349   F   F   F
  0.3750000000000001  0.9986099866666650  0.3904512483333349   F   F   F
  0.8750000000000001  0.4986099866666649  0.3904512483333349   F   F   F
  0.8750000000000001  0.9986099866666650  0.3904512483333349   F   F   F
  0.3736758384509825  0.4769317275893009  0.6890709828135754   T   T   T
