Co H  O 
 1.0000000000000000
     5.6977452034080489    0.0000000000000000    0.0000000000000003
    -0.0000000000000006    9.2190899832277964   -0.4407871102770392
     0.0000000000000000    0.0000000000000000   27.6936133766900419
 Co  H   O  
  16  16  33
Selective dynamics
Direct
  0.3750346110677333  0.3940167644161792  0.6333529919558734   T   T   T
  0.3750838539161507  0.8850749616106406  0.6256374453397691   T   T   T
  0.8750361358549410  0.3827853816567249  0.6271428925703803   T   T   T
  0.8751124248811912  0.8835687058588392  0.6249897301399252   T   T   T
  0.1242230527631738  0.4566219023648476  0.5431391980003833   T   T   T
  0.1267982588496899  0.9593222126193538  0.5423503143547987   T   T   T
  0.6257212481345700  0.4566137017631849  0.5431369033439127   T   T   T
  0.6231767111749542  0.9593457753937258  0.5423503013339650   T   T   T
  0.3750000000000001  0.0416666666666643  0.4583333333333357   F   F   F
  0.3750000000000001  0.5416666666666643  0.4583333333333357   F   F   F
  0.8750000000000001  0.0416666666666643  0.4583333333333357   F   F   F
  0.8750000000000001  0.5416666666666643  0.4583333333333357   F   F   F
  0.1250000000000000  0.1250000000000000  0.3750000000000000   F   F   F
  0.1250000000000000  0.6250000000000000  0.3750000000000000   F   F   F
  0.6250000000000000  0.1250000000000000  0.3750000000000000   F   F   F
  0.6250000000000000  0.6250000000000000  0.3750000000000000   F   F   F
  0.1337363939031186  0.1678751572830001  0.6304151198307493   T   T   T
  0.1263655192267135  0.6671500870577979  0.6339849687644616   T   T   T
  0.6164115216694251  0.1678777799197889  0.6304256725311382   T   T   T
  0.6238424788705869  0.6671530905058789  0.6339811974966849   T   T   T
  0.3749461881966644  0.2188949729825118  0.5453613754276923   T   T   T
  0.3749635112480030  0.6935289426633802  0.5411567514522103   T   T   T
  0.8749756285833087  0.2004923378758463  0.5404546416693015   T   T   T
  0.8749331250818556  0.6960932279557170  0.5417437402884347   T   T   T
  0.1250000000000000  0.2916666666666643  0.4583333333333357   F   F   F
  0.1250000000000000  0.7916666666666643  0.4583333333333357   F   F   F
  0.6250000000000000  0.2916666666666643  0.4583333333333357   F   F   F
  0.6250000000000000  0.7916666666666643  0.4583333333333357   F   F   F
  0.3750000000000001  0.3750000000000000  0.3750000000000000   F   F   F
  0.3750000000000001  0.8749999999999999  0.3750000000000000   F   F   F
  0.8750000000000001  0.3750000000000000  0.3750000000000000   F   F   F
  0.8750000000000001  0.8749999999999999  0.3750000000000000   F   F   F
  0.1272026904297858  0.0099862422774560  0.6103525924686544   T   T   T
  0.1212525531459444  0.5082732174116220  0.6101177575731810   T   T   T
  0.6229306070334596  0.0099878569180122  0.6103473628250813   T   T   T
  0.6288164902347116  0.5082609614499359  0.6101143835773548   T   T   T
  0.1225756059595133  0.2685332175921645  0.6476959590073950   T   T   T
  0.1260750035117784  0.7723861192036200  0.6466664090864375   T   T   T
  0.6275438224761815  0.2685250680631027  0.6477024411364287   T   T   T
  0.6242198871749771  0.7723960924797815  0.6466588178595259   T   T   T
  0.3749678712088402  0.0859921433438683  0.5262581359549194   T   T   T
  0.3749369772059299  0.5828470758621325  0.5268603081313992   T   T   T
  0.8749845948709218  0.0843760200769747  0.5261933520091071   T   T   T
  0.8749357653019305  0.5837846783281855  0.5267048073311459   T   T   T
  0.3749453915655265  0.3322394777161883  0.5610749222791687   T   T   T
  0.3749824226453570  0.8339168876718485  0.5573915065542152   T   T   T
  0.8749489174926142  0.3317097540207932  0.5565250773242725   T   T   T
  0.8749199183137863  0.8335844255466309  0.5583383352422583   T   T   T
  0.1250000000000000  0.1680566799999994  0.4428820850000008   F   F   F
  0.1250000000000000  0.6680566799999994  0.4428820850000008   F   F   F
  0.6250000000000000  0.1680566799999994  0.4428820850000008   F   F   F
  0.6250000000000000  0.6680566799999994  0.4428820850000008   F   F   F
  0.1250000000000000  0.4152766533333363  0.4737845816666635   F   F   F
  0.1250000000000000  0.9152766533333364  0.4737845816666635   F   F   F
  0.6250000000000000  0.4152766533333363  0.4737845816666635   F   F   F
  0.6250000000000000  0.9152766533333364  0.4737845816666635   F   F   F
  0.3750000000000001  0.2513900133333352  0.3595487516666651   F   F   F
  0.3750000000000001  0.7513900133333351  0.3595487516666651   F   F   F
  0.8750000000000001  0.2513900133333352  0.3595487516666651   F   F   F
  0.8750000000000001  0.7513900133333351  0.3595487516666651   F   F   F
  0.3750000000000001  0.4986099866666649  0.3904512483333349   F   F   F
  0.3750000000000001  0.9986099866666650  0.3904512483333349   F   F   F
  0.8750000000000001  0.4986099866666649  0.3904512483333349   F   F   F
  0.8750000000000001  0.9986099866666650  0.3904512483333349   F   F   F
  0.3749746002829077  0.4760282873098439  0.6865836590648932   T   T   T
