Co Ni H  O 
 1.0000000000000000
     5.6977452034080489    0.0000000000000000    0.0000000000000003
    -0.0000000000000006    9.2190899832277964   -0.4407871102770392
     0.0000000000000000    0.0000000000000000   27.6936133766900419
 Co  Ni  H   O  
  15   1  17  33
Selective dynamics
Direct
  0.3750716526097667  0.8814746142226261  0.6251961446441195   T   T   T
  0.8751586307595549  0.3868020849899214  0.6298948806125406   T   T   T
  0.8756632019874637  0.8816100385085439  0.6252739749407015   T   T   T
  0.1243115569673421  0.4568369272565622  0.5429253639930400   T   T   T
  0.1265317632875591  0.9590666248729405  0.5426483010187184   T   T   T
  0.6261137253248450  0.4570910825165653  0.5431630466030354   T   T   T
  0.6237715314703108  0.9588752424700181  0.5425145217304030   T   T   T
  0.3750000000000001  0.0416666666666643  0.4583333333333357   F   F   F
  0.3750000000000001  0.5416666666666643  0.4583333333333357   F   F   F
  0.8750000000000001  0.0416666666666643  0.4583333333333357   F   F   F
  0.8750000000000001  0.5416666666666643  0.4583333333333357   F   F   F
  0.1250000000000000  0.1250000000000000  0.3750000000000000   F   F   F
  0.1250000000000000  0.6250000000000000  0.3750000000000000   F   F   F
  0.6250000000000000  0.1250000000000000  0.3750000000000000   F   F   F
  0.6250000000000000  0.6250000000000000  0.3750000000000000   F   F   F
  0.3765991548202200  0.3782178049378512  0.6268466337626963   T   T   T
  0.1241438262467094  0.1637437199556086  0.6324204469243880   T   T   T
  0.1239821654481503  0.6654161925833967  0.6361295343478631   T   T   T
  0.6313886730502744  0.1575345496865948  0.6282359343772455   T   T   T
  0.6254206761561287  0.6655041029810563  0.6360496073154034   T   T   T
  0.3751754387888718  0.2145183227420465  0.5409259633896438   T   T   T
  0.3748557151858999  0.6944590260613510  0.5412811165797444   T   T   T
  0.8754355358688383  0.1948861482257166  0.5418702618889703   T   T   T
  0.8753233586976081  0.6965412744620484  0.5419369590054925   T   T   T
  0.1250000000000000  0.2916666666666643  0.4583333333333357   F   F   F
  0.1250000000000000  0.7916666666666643  0.4583333333333357   F   F   F
  0.6250000000000000  0.2916666666666643  0.4583333333333357   F   F   F
  0.6250000000000000  0.7916666666666643  0.4583333333333357   F   F   F
  0.3750000000000001  0.3750000000000000  0.3750000000000000   F   F   F
  0.3750000000000001  0.8749999999999999  0.3750000000000000   F   F   F
  0.8750000000000001  0.3750000000000000  0.3750000000000000   F   F   F
  0.8750000000000001  0.8749999999999999  0.3750000000000000   F   F   F
  0.9746581206891389  0.4065816185119078  0.7080094950458967   T   T   T
  0.1254291871316782  0.0084051846779831  0.6106027579157717   T   T   T
  0.1275474833612884  0.5043593960791874  0.6102277830252284   T   T   T
  0.6254136408175143  0.0081479956613819  0.6102327052627435   T   T   T
  0.6217208191086729  0.5063188401843697  0.6103280849443823   T   T   T
  0.1276978647809867  0.2657360050928207  0.6492762893537823   T   T   T
  0.1255900540649226  0.7709375481571327  0.6472764473593307   T   T   T
  0.6285465853876813  0.2623213298609529  0.6449020103113053   T   T   T
  0.6250899484925876  0.7713786564870817  0.6472096037076870   T   T   T
  0.3751674384868020  0.0838139081218755  0.5259777783221782   T   T   T
  0.3750147079779634  0.5834987813695957  0.5265677116883323   T   T   T
  0.8751206858882956  0.0851307950370116  0.5264419080965589   T   T   T
  0.8751549528203323  0.5841738823435819  0.5270192429501959   T   T   T
  0.3748997489273759  0.3308750091971505  0.5556154906319143   T   T   T
  0.3750923028196060  0.8336556875347033  0.5582973504190899   T   T   T
  0.8747228500063913  0.3328790931902713  0.5609502082295794   T   T   T
  0.8751469376171346  0.8336225419607832  0.5584780210300788   T   T   T
  0.1250000000000000  0.1680566799999994  0.4428820850000008   F   F   F
  0.1250000000000000  0.6680566799999994  0.4428820850000008   F   F   F
  0.6250000000000000  0.1680566799999994  0.4428820850000008   F   F   F
  0.6250000000000000  0.6680566799999994  0.4428820850000008   F   F   F
  0.1250000000000000  0.4152766533333363  0.4737845816666635   F   F   F
  0.1250000000000000  0.9152766533333364  0.4737845816666635   F   F   F
  0.6250000000000000  0.4152766533333363  0.4737845816666635   F   F   F
  0.6250000000000000  0.9152766533333364  0.4737845816666635   F   F   F
  0.3750000000000001  0.2513900133333352  0.3595487516666651   F   F   F
  0.3750000000000001  0.7513900133333351  0.3595487516666651   F   F   F
  0.8750000000000001  0.2513900133333352  0.3595487516666651   F   F   F
  0.8750000000000001  0.7513900133333351  0.3595487516666651   F   F   F
  0.3750000000000001  0.4986099866666649  0.3904512483333349   F   F   F
  0.3750000000000001  0.9986099866666650  0.3904512483333349   F   F   F
  0.8750000000000001  0.4986099866666649  0.3904512483333349   F   F   F
  0.8750000000000001  0.9986099866666650  0.3904512483333349   F   F   F
  0.8740127946883693  0.4685789299091725  0.6889792682064801   T   T   T
