Co Ni H  O 
 1.0000000000000000
     5.6977452034080489    0.0000000000000000    0.0000000000000003
    -0.0000000000000006    9.2190899832277964   -0.4407871102770392
     0.0000000000000000    0.0000000000000000   27.6936133766900419
 Co  Ni  H   O  
  15   1  16  32
Selective dynamics
Direct
  0.3752117378472038  0.8780353752532908  0.6252605021454077   T   T   T
  0.8750217724843777  0.3753102687960039  0.6255867853688827   T   T   T
  0.8752138792894451  0.8783298870313103  0.6252535494560975   T   T   T
  0.1245591010497828  0.4571380747912093  0.5428065470789021   T   T   T
  0.1268012874185661  0.9580480805830840  0.5427254166402781   T   T   T
  0.6253278654973199  0.4571487921874305  0.5428030797894746   T   T   T
  0.6233245291148443  0.9580444002276929  0.5427287157193945   T   T   T
  0.3750000000000001  0.0416666666666643  0.4583333333333357   F   F   F
  0.3750000000000001  0.5416666666666643  0.4583333333333357   F   F   F
  0.8750000000000001  0.0416666666666643  0.4583333333333357   F   F   F
  0.8750000000000001  0.5416666666666643  0.4583333333333357   F   F   F
  0.1250000000000000  0.1250000000000000  0.3750000000000000   F   F   F
  0.1250000000000000  0.6250000000000000  0.3750000000000000   F   F   F
  0.6250000000000000  0.1250000000000000  0.3750000000000000   F   F   F
  0.6250000000000000  0.6250000000000000  0.3750000000000000   F   F   F
  0.3750398850079999  0.3760884017648494  0.6275262358920629   T   T   T
  0.1261367864200789  0.1592194564910243  0.6340491066419294   T   T   T
  0.1255142663264933  0.6607600159250197  0.6340274863126076   T   T   T
  0.6240434352472812  0.1592696802576347  0.6340908857140881   T   T   T
  0.6246714192369982  0.6607548566613927  0.6340296427399742   T   T   T
  0.3749514015377369  0.2156710171629013  0.5411500024916532   T   T   T
  0.3749557196663078  0.6955431691907159  0.5412524943795696   T   T   T
  0.8749459624842520  0.1929775216941869  0.5407412823791059   T   T   T
  0.8749826492709205  0.6977644953483912  0.5418205736345451   T   T   T
  0.1250000000000000  0.2916666666666643  0.4583333333333357   F   F   F
  0.1250000000000000  0.7916666666666643  0.4583333333333357   F   F   F
  0.6250000000000000  0.2916666666666643  0.4583333333333357   F   F   F
  0.6250000000000000  0.7916666666666643  0.4583333333333357   F   F   F
  0.3750000000000001  0.3750000000000000  0.3750000000000000   F   F   F
  0.3750000000000001  0.8749999999999999  0.3750000000000000   F   F   F
  0.8750000000000001  0.3750000000000000  0.3750000000000000   F   F   F
  0.8750000000000001  0.8749999999999999  0.3750000000000000   F   F   F
  0.1256788403582808  0.0053970064944632  0.6110493869476536   T   T   T
  0.1260915827320796  0.5022540696303961  0.6110113411026356   T   T   T
  0.6248038083476940  0.0054018661362383  0.6110531833123715   T   T   T
  0.6239237026192572  0.5022406208131959  0.6110124953163820   T   T   T
  0.1228075844868591  0.2639294871448803  0.6487283091561648   T   T   T
  0.1251650422522431  0.7660468301627823  0.6466486957544029   T   T   T
  0.6273002707812367  0.2639627467896327  0.6487678387204104   T   T   T
  0.6252416813931903  0.7660376042910724  0.6466478467781264   T   T   T
  0.3750475952982181  0.0831160288096318  0.5260968964595125   T   T   T
  0.3748982215464886  0.5835854146642102  0.5266125911990696   T   T   T
  0.8750013358605609  0.0833334324605611  0.5264199639976256   T   T   T
  0.8749396797279699  0.5842725362982212  0.5269081119823245   T   T   T
  0.3749178769688010  0.3306056599496404  0.5558143760429090   T   T   T
  0.3750498587060678  0.8325024650659449  0.5580975598808406   T   T   T
  0.8748993015551466  0.3328189089887577  0.5582394935303676   T   T   T
  0.8750399558595096  0.8324894483556984  0.5582481777904724   T   T   T
  0.1250000000000000  0.1680566799999994  0.4428820850000008   F   F   F
  0.1250000000000000  0.6680566799999994  0.4428820850000008   F   F   F
  0.6250000000000000  0.1680566799999994  0.4428820850000008   F   F   F
  0.6250000000000000  0.6680566799999994  0.4428820850000008   F   F   F
  0.1250000000000000  0.4152766533333363  0.4737845816666635   F   F   F
  0.1250000000000000  0.9152766533333364  0.4737845816666635   F   F   F
  0.6250000000000000  0.4152766533333363  0.4737845816666635   F   F   F
  0.6250000000000000  0.9152766533333364  0.4737845816666635   F   F   F
  0.3750000000000001  0.2513900133333352  0.3595487516666651   F   F   F
  0.3750000000000001  0.7513900133333351  0.3595487516666651   F   F   F
  0.8750000000000001  0.2513900133333352  0.3595487516666651   F   F   F
  0.8750000000000001  0.7513900133333351  0.3595487516666651   F   F   F
  0.3750000000000001  0.4986099866666649  0.3904512483333349   F   F   F
  0.3750000000000001  0.9986099866666650  0.3904512483333349   F   F   F
  0.8750000000000001  0.4986099866666649  0.3904512483333349   F   F   F
  0.8750000000000001  0.9986099866666650  0.3904512483333349   F   F   F
