Co H  C  N 
 1.0000000000000000
    13.8050792421432948    0.0000000000000000   -4.8808325722513288
    -6.9025396187763697   11.9555493262784989   -4.8808325722513288
     0.0000000000000000    0.0000000000000000   14.6424977199999997
 Co  H   C   N  
   6  60  48  24
Direct
  0.2494181002497326  0.4993032324588848  0.7490304749641388
  0.7509393795829400  0.5007112220398758  0.2505948662424831
  0.5005047343920357  0.2502643842538046  0.7509945024287559
  0.4997526840970361  0.7495226326436960  0.2495095999777829
  0.7489397834020637  0.2496637183158731  0.4994642126313514
  0.2504668936646696  0.7504381908475445  0.5001932231365480
  0.1157958105602252  0.5396769501258784  0.8808145853209099
  0.8842026872695037  0.7666229634155406  0.4214350280006227
  0.3381569473969395  0.4570740886297736  0.5725577343228335
  0.6586144180686956  0.2360168279926710  0.1185664351987347
  0.2359755346681327  0.1185112416925505  0.6589518524301045
  0.4627854065416946  0.5784070067938517  0.3447089794091743
  0.7666060201859133  0.4212064804981112  0.8840949102358561
  0.5397155505846609  0.8808741083542899  0.1157367603546677
  0.5736240674397158  0.3401318140666393  0.4591312616604297
  0.1181948871945343  0.6575546172551062  0.2346509220215684
  0.8813316504900133  0.1163065467829527  0.5390727520839257
  0.4229736147985905  0.8836550492037155  0.7657595577327969
  0.1162587284911074  0.8824431984305684  0.5398457878825962
  0.8837411605691754  0.4259236562301901  0.7645120571201995
  0.3394931366440861  0.5744141109929772  0.4579377416366073
  0.6577528886482134  0.1184013665354021  0.2330620395440920
  0.2341349674515589  0.6588118589714337  0.1185026354713889
  0.4614754109652204  0.3437450620322718  0.5790049011589138
  0.7654651860412015  0.8842418672408527  0.4242976637931514
  0.5401748417411801  0.1157598747785291  0.8819255622798088
  0.5803218106998865  0.4637682317054516  0.3461083226451765
  0.1183974416826651  0.2330392704478765  0.6582571284596590
  0.8824172751811721  0.5396315576877972  0.1161615228871504
  0.4259711293040696  0.7645240676284157  0.8836746750990330
  0.0434152625640120  0.3818412278064729  0.4931501507537861
  0.9572725072014001  0.4513655102145718  0.3415251616687756
  0.1113848105492807  0.6170141368266552  0.6610964696603127
  0.6158806017761158  0.6603940297441189  0.1103812640051071
  0.4512612438821372  0.3413080478528048  0.9570467725261170
  0.3820227202476077  0.4935009617102530  0.0437739221232508
  0.6602743155641848  0.1104418777435767  0.6162455808043878
  0.5061590161658636  0.8896261316788467  0.5496601093797828
  0.4933142301871929  0.0432077107142030  0.3829587674842608
  0.3405609618582668  0.9567172124261725  0.4506893011424143
  0.8886789214966208  0.5047671544253703  0.5507392112896212
  0.5048017965794824  0.5507128821379808  0.8884693229118510
  0.9142401486936109  0.2618304267075230  0.4397228377259909
  0.0856452148309239  0.5260835700875552  0.3488699778087556
  0.1777539323171907  0.7370296671805362  0.6519879696326850
  0.7358169572180677  0.6507693692257006  0.1758367423427271
  0.5262121958466409  0.3493450981794933  0.0857909175074324
  0.2620916443919327  0.4397631850738352  0.9143828696479145
  0.6520179676943183  0.1771818349601950  0.7368414807893670
  0.5596154453968698  0.8227575215295184  0.4742732251291951
  0.4399613122226462  0.9144544478455234  0.2625400510816950
  0.3488621774584699  0.0854613769629210  0.5260295199816331
  0.8236948082994882  0.5595616952302195  0.4756160045872419
  0.5594103181403116  0.4754246063514909  0.8233591984908226
  0.0433780506120517  0.2701182324601634  0.5146379696599839
  0.9557953169416685  0.4707309414512481  0.2283993085220270
  0.2444987045933731  0.7288661738392346  0.7729179302263458
  0.7287811973822315  0.7723873917288667  0.2428559776456263
  0.4708502602945553  0.2284451376259560  0.9562790085681886
  0.2700667934598065  0.5147158022997258  0.0433449405926298
  0.7726883622600398  0.2433094775746386  0.7281123308515942
  0.4852756913835419  0.7568562794168888  0.5292858734880619
  0.5144317121069091  0.0439398040703414  0.2712094854593143
  0.2280287659556043  0.9560224937157944  0.4708594553053310
  0.7558678616685439  0.4847974455695225  0.5292519997242495
  0.4844891054076065  0.5289260396972131  0.7554933562054408
  0.9998346727119595  0.3182570393137946  0.5105434513803703
  0.0001077909442159  0.5113747656846808  0.3201924763700095
  0.1923376952353482  0.6807054440993933  0.6812218491538401
  0.8082048461963306  0.4883738448985169  0.4898995894235878
  0.4882530914058212  0.4897412471902664  0.8079829383875130
  0.6801069277550207  0.6806427509116445  0.1910979995768274
  0.5113843955668255  0.3202448708959486  0.0001753193429001
  0.3183426304976207  0.5106750947931903  0.9999495449085785
  0.6809384435255211  0.1915232612345700  0.6802387312227223
  0.4888758643360064  0.8084687724847955  0.4891524614580175
  0.5106653683152864  0.0000930209652457  0.3191012240628152
  0.3197792745554549  0.9998224683941503  0.5111250733614203
  0.9993445012923509  0.3715427596378372  0.6167444148119274
  0.0006474371469218  0.6183028427091304  0.3728065684960346
  0.2452542817105467  0.6274893323084464  0.6273906060856289
  0.7546306916507901  0.3824148125836299  0.3827531449817307
  0.3823207053767871  0.3826374947494623  0.7546514110236326
  0.6281003357028130  0.6280293220951081  0.2454420050881689
  0.6182738781320374  0.3727159589600672  0.0006114178207302
  0.3715575807277975  0.6168371057486493  0.9993688142020134
  0.6275739981523601  0.2452018480430376  0.6278178413735332
  0.3824981699648247  0.7547212182450607  0.3823809756395736
  0.6170483521663638  0.9997211256648330  0.3718087838295417
  0.3726617755871076  0.0001739626496049  0.6178989384586920
  0.0571197766788540  0.4787543755377722  0.7929262322473105
  0.9429114802129327  0.7372233670562880  0.4201763425925276
  0.3129555145954313  0.5194319783049794  0.5765615096027926
  0.6850825329699071  0.2645429267986460  0.2062504429035767
  0.2644844696944293  0.2061761711212156  0.6853557038370118
  0.5232409956594017  0.5804002859101052  0.3171392156447895
  0.7371723619606513  0.4199497150913376  0.9427899469108408
  0.4787578365099264  0.7929822661962073  0.0570345953232213
  0.5776870965474894  0.3146392660264444  0.5212901625701755
  0.2060795488465593  0.6845966024287004  0.2637928511648049
  0.7934512306583623  0.0575914665814130  0.4781765651705908
  0.4209390907820951  0.9423690069882769  0.7365577299140869
  0.0578682076961202  0.7946604053046644  0.4783900920925093
  0.9421554436760887  0.4220380159029962  0.7353995952527880
  0.3135847039643967  0.5775258575164551  0.5196982953467418
  0.6844530593268828  0.2063593729505651  0.2630223652268629
  0.2634567073478130  0.6848631238401615  0.2062195718685513
  0.5216909818081583  0.3159839716406519  0.5802403367688861
  0.7361235914951314  0.9426301392013250  0.4209908105976878
  0.4786603883091636  0.0573248256921276  0.7941663082718076
  0.5814038105601682  0.5235995617557970  0.3178254630288462
  0.2063084718249944  0.2629586619269563  0.6847504817449848
  0.7946281092152971  0.4781901601729328  0.0577376807680361
  0.4220304792314051  0.7354094995913746  0.9420871021860060
  0.0928576456334402  0.4463863702463827  0.7177219250637428
  0.9072268103489757  0.6259885623884913  0.3533703052364054
  0.2701999867903110  0.5516039186899937  0.6448234188618789
  0.7292095148181984  0.3756323159871062  0.2821832789358016
  0.3755362812102264  0.2820745076686832  0.7292971790669813
  0.5532863501955763  0.6465239786646358  0.2717166409942159
  0.6259264539560251  0.3531782559240624  0.9071507519196678
  0.4464081418248785  0.7178223729491885  0.0928277480915634
  0.6448511185450857  0.2703714656823616  0.5519967410703304
  0.2815350133192611  0.7284580636415616  0.3749150263788333
  0.7179940948365877  0.0932501110833176  0.4465584393973503
  0.3538624356049251  0.9066949462501185  0.6253954552103719
  0.0939315961900359  0.7192241951617010  0.4477860772676059
  0.9060320889346460  0.3540801084567954  0.6242023775464154
  0.2711524112409702  0.6460226192579448  0.5524722834185548
  0.7279715712339125  0.2810772907210874  0.3743704760698094
  0.3748118862830451  0.7287983009414040  0.2814289512642770
  0.5537309342541746  0.2722847420676925  0.6476166716323269
  0.6247594169840947  0.9064681498831676  0.3535638608200329
  0.4475256658286200  0.0934313210282648  0.7188845693911399
  0.6477418579632910  0.5542152365355268  0.2726999688560278
  0.2809915827718620  0.3742730552795475  0.7281252032468056
  0.7192151113709160  0.4476908992041201  0.0938605468539086
  0.3540509509780292  0.6242177243707424  0.9060049610562966
