Co H  C  N 
 1.0000000000000000
    13.8050792421432948    0.0000000000000000   -4.8808325722513288
    -6.9025396187763697   11.9555493262784989   -4.8808325722513288
     0.0000000000000000    0.0000000000000000   14.6424977199999997
 Co  H   C   N  
   6  60  48  24
Direct
  0.2494699328521406  0.4996849390365021  0.7489794101863539
  0.7510282009186524  0.5003676645513971  0.2505501452152428
  0.5003200326778137  0.2504236076381887  0.7511851010431315
  0.4998486333611016  0.7492520037136173  0.2492517201734438
  0.7488482628311632  0.2494893654206671  0.4996885889785251
  0.2507490619039586  0.7508039251746178  0.5002156809068455
  0.1160927467518710  0.5399993668574411  0.8805994233984031
  0.8840500932968536  0.7656688739645944  0.4218741282368385
  0.3377642540728488  0.4574302612189535  0.5728251187223099
  0.6597198728673163  0.2360588517150076  0.1192599919502777
  0.2360732653318068  0.1193045232993898  0.6600083811495967
  0.4616452178193702  0.5772160044241564  0.3427738327260687
  0.7654913049830782  0.4216150217295099  0.8838072441875190
  0.5400698594885422  0.8806650671953654  0.1158391384661680
  0.5735164926210464  0.3391197268336191  0.4588447709638124
  0.1189056669076113  0.6586355325805376  0.2352525281421213
  0.8807720960454292  0.1162278124523929  0.5393541075477333
  0.4236025758617932  0.8837092028011787  0.7650131905471244
  0.1168330697768583  0.8816950548092146  0.5401515355498947
  0.8833704945068702  0.4252686986012069  0.7639964147225796
  0.3400736718812270  0.5760016749778906  0.4587349591388512
  0.6582142866344020  0.1186805163510925  0.2346490029822294
  0.2351749898593004  0.6590915763218005  0.1187813322989969
  0.4613249790939931  0.3432879689065516  0.5793723187454878
  0.7644554962431295  0.8834629943378546  0.4234660426293415
  0.5403825667314325  0.1165332693638459  0.8815517478577632
  0.5802576880277367  0.4629470256056988  0.3449902840276896
  0.1187621205531289  0.2347370420957353  0.6585066042165882
  0.8817032036602875  0.5398840472308063  0.1166152118679971
  0.4252622099096409  0.7638763543267633  0.8830884116435151
  0.0437408237352113  0.3824064362383369  0.4936140257309871
  0.9569701727781804  0.4513831589900448  0.3419275344222307
  0.1108283135480221  0.6162085448932242  0.6604060911398332
  0.6152362340738491  0.6598827978624054  0.1101257309163792
  0.4513078470840710  0.3416255689803571  0.9565085192169557
  0.3824342915883895  0.4938332509776883  0.0438723310433310
  0.6597632381444356  0.1101264852128919  0.6155545352888621
  0.5058114896168038  0.8899141225015431  0.5494713127416939
  0.4937595486551432  0.0434779359181601  0.3835613159372581
  0.3408932144593512  0.9564276218894288  0.4508233077215429
  0.8890545159776091  0.5044249495771521  0.5506118165553282
  0.5045550788077762  0.5505823898052760  0.8889079050888509
  0.9141427729454318  0.2625142290180635  0.4397937102082494
  0.0858907523333755  0.5259014419375335  0.3498184151884898
  0.1765023529617389  0.7363577948675382  0.6510127301669690
  0.7353348572301077  0.6500374220146805  0.1750076681882450
  0.5257710511034221  0.3500367437488071  0.0857909961903546
  0.2626784780828680  0.4398708969424056  0.9140828849082818
  0.6511085061957175  0.1760942412803847  0.7362359080644568
  0.5600533096699432  0.8237461585744614  0.4743968500227894
  0.4397114611261251  0.9142066927516193  0.2631639186000839
  0.3496688954728853  0.0857109521956236  0.5258502621216096
  0.8246335416935411  0.5597608203002429  0.4756457173773306
  0.5597405113045567  0.4755451877042075  0.8243431802988122
  0.0429351702491865  0.2698547546384999  0.5138492734969687
  0.9564503567584256  0.4698591192759892  0.2285349753590323
  0.2433208330363641  0.7290900492407756  0.7725535990419095
  0.7288974399221749  0.7720291991137190  0.2421361431351299
  0.4699630972922944  0.2284710141006017  0.9566211074726271
  0.2697026183017643  0.5139294122067808  0.0427026353140102
  0.7723005799464229  0.2424260974216416  0.7283418246996792
  0.4863954653796362  0.7576276430654941  0.5297519425131110
  0.5133164557762439  0.0433232948424224  0.2708084846429504
  0.2281987381191693  0.9565958318991327  0.4703501272601614
  0.7567346825100549  0.4857815126422975  0.5298103460408133
  0.4857178786185932  0.5297150284579883  0.7565247417598222
  0.9998281949660695  0.3184629734797630  0.5104884591582507
  0.0002282102805000  0.5109661071473007  0.3203712358733614
  0.1915965598059474  0.6805505632900022  0.6807998996525045
  0.8087339256285846  0.4886460851185124  0.4900756612809266
  0.4886627478310417  0.4900154944648076  0.8085453796554359
  0.6799684728183490  0.6802472609776714  0.1906532535508364
  0.5109218558207148  0.3202997213907995  0.0001275983330716
  0.3184796900886900  0.5106052278721924  0.9997751593348282
  0.6805268218179411  0.1909660480817218  0.6801205355199808
  0.4893048087262530  0.8089705775817927  0.4893135072620464
  0.5103663513152311  0.9999144285852458  0.3191833345775069
  0.3199990069130775  0.0000282967102579  0.5109042388084269
  0.9994463832584346  0.3713630170966394  0.6167678290468335
  0.0006543037092235  0.6178681281675233  0.3723037421354172
  0.2453171665604214  0.6281110819067104  0.6277008074552063
  0.7546776283288131  0.3825505190391518  0.3831029956604148
  0.3825482856912523  0.3830624279339780  0.7545993925828687
  0.6283877647775599  0.6279954102485402  0.2453816453004083
  0.6178356742290193  0.3721386374711576  0.0005769937191950
  0.3713956333855138  0.6168464793290318  0.9993547857076803
  0.6276842196778309  0.2451846531929027  0.6282328052527721
  0.3828963507779310  0.7546992180817713  0.3825320416160173
  0.6167882102003391  0.9995796060382048  0.3714047446759338
  0.3724046275729744  0.0004059279149988  0.6176926286933139
  0.0571669839647191  0.4786665618200749  0.7928617020127939
  0.9430005895110858  0.7366962621812291  0.4201875715920322
  0.3131292903006259  0.5201712212628303  0.5769383998277647
  0.6855992175356208  0.2644848250451417  0.2068268503404940
  0.2645148175842398  0.2068559841543686  0.6857913017049352
  0.5228851675858162  0.5796890543033260  0.3162088872752236
  0.7366249915327180  0.4199750996660301  0.9428179372189043
  0.4787200351441156  0.7929271636892111  0.0569491315230131
  0.5775740678154010  0.3141878716818766  0.5213842801459206
  0.2066219963969445  0.6850304850171444  0.2640227650657226
  0.7930434733229361  0.0572891809493942  0.4780144400700234
  0.4212502058851497  0.9426909333013105  0.7362704979435012
  0.0580067247810462  0.7940949851221253  0.4783260997564248
  0.9421390741358957  0.4216752694375778  0.7353120045349002
  0.3141711817391848  0.5786705952086038  0.5204399764483612
  0.6845487683440230  0.2064529504729481  0.2637945229910558
  0.2640121502449100  0.6849413303537710  0.2063992604945243
  0.5217240156767730  0.3157913579286469  0.5805260190004314
  0.7356606983571021  0.9422949565992657  0.4205165043763620
  0.4786901437171165  0.0576795579640661  0.7939048792942641
  0.5813326904902389  0.5231513734121185  0.3172036617522506
  0.2065080779030867  0.2638404937700240  0.6847151701990352
  0.7940957832665814  0.4780846227961070  0.0578279972167221
  0.4217298423375612  0.7352955815580176  0.9419389435499534
  0.0929399604341075  0.4464123377852491  0.7176681650034410
  0.9072560744303445  0.6255124232633408  0.3530946696833794
  0.2700043640360398  0.5520441087395711  0.6449055602264623
  0.7297136081566378  0.3756336623503663  0.2825423871552690
  0.3756258710521957  0.2825150437278107  0.7297512650331268
  0.5531658561796238  0.6460792968420463  0.2711167723500091
  0.6254450175893748  0.3529501993953155  0.9071715761976036
  0.4464393748752698  0.7177703208883492  0.0927816078050877
  0.6447453333343887  0.2699872091854915  0.5521789727397723
  0.2820333992238785  0.7288825999020830  0.3751472628313187
  0.7176657976590093  0.0930558310646217  0.4464782337700752
  0.3540349056916828  0.9069789456009788  0.6251320113948682
  0.0939815561903068  0.7186943308198409  0.4473827428969862
  0.9060806940690043  0.3537035971880054  0.6241548305687722
  0.2715788113738797  0.6470042655658712  0.5531197868032643
  0.7278638865340349  0.2813381046774035  0.3750138216711060
  0.3752753256124053  0.7286493602728139  0.2816185367424929
  0.5538973183817902  0.2723126442575032  0.6480742753466167
  0.6243821148462266  0.9062568629924964  0.3529635890462179
  0.4471855383177473  0.0936839327228897  0.7186278846693314
  0.6480490551832939  0.5541709407870932  0.2725739969655767
  0.2813666171295089  0.3750081836063570  0.7278601259785346
  0.7187075836238019  0.4471567100065534  0.0938446844555464
  0.3537521323516091  0.6241667049190560  0.9059715253796703
