Co16 H17 O33                            
   1.0000000000000000     
     5.6977452034080489    0.0000000000000000    0.0000000000000003
    -0.0000000000000006    9.2190899832277964   -0.4407871102770392
     0.0000000000000000    0.0000000000000000   27.6936133766900419
  Co              H               O             
    16    17    33
Selective dynamics
Direct
  0.3757426025004502  0.3913115977139342  0.6295222329654572   T   T   T
  0.3759283183760815  0.8829686886412663  0.6296090667523083   T   T   T
  0.8768306765031493  0.3832557466610859  0.6246364414438109   T   T   T
  0.8756288923281865  0.8812852890400843  0.6259585586013977   T   T   T
  0.1276101944375073  0.4592451124066897  0.5429775569018592   T   T   T
  0.1251962952181535  0.9582767024756516  0.5424664805700214   T   T   T
  0.6230760241946648  0.4588955194502156  0.5427430457399042   T   T   T
  0.6253378023180768  0.9586020849996626  0.5426064192108195   T   T   T
  0.3750000000000000  0.0416666666666643  0.4583333333333357   F   F   F
  0.3750000000000000  0.5416666666666643  0.4583333333333357   F   F   F
  0.8750000000000000  0.0416666666666643  0.4583333333333357   F   F   F
  0.8750000000000000  0.5416666666666643  0.4583333333333357   F   F   F
  0.1250000000000000  0.1250000000000000  0.3750000000000000   F   F   F
  0.1250000000000000  0.6250000000000000  0.3750000000000000   F   F   F
  0.6250000000000000  0.1250000000000000  0.3750000000000000   F   F   F
  0.6250000000000000  0.6250000000000000  0.3750000000000000   F   F   F
  0.1329662926774321  0.1636249345864272  0.6286352238518663   T   T   T
  0.1278175830235387  0.6660423876788600  0.6364863854810164   T   T   T
  0.6237442107501282  0.1683174467828116  0.6328110458996212   T   T   T
  0.6222597920971426  0.6664612272478213  0.6370342772497135   T   T   T
  0.3756033221578606  0.1992368795392637  0.5423760379799342   T   T   T
  0.3754504993378760  0.7159218042926493  0.5406788437604898   T   T   T
  0.8751962392341972  0.1976435611693794  0.5414222209486437   T   T   T
  0.8749783265881923  0.6938776355269308  0.5405770077473476   T   T   T
  0.1250000000000000  0.2916666666666643  0.4583333333333357   F   F   F
  0.1250000000000000  0.7916666666666643  0.4583333333333357   F   F   F
  0.6250000000000000  0.2916666666666643  0.4583333333333357   F   F   F
  0.6250000000000000  0.7916666666666643  0.4583333333333357   F   F   F
  0.3750000000000000  0.3750000000000000  0.3750000000000000   F   F   F
  0.3750000000000000  0.8750000000000000  0.3750000000000000   F   F   F
  0.8750000000000000  0.3750000000000000  0.3750000000000000   F   F   F
  0.8750000000000000  0.8750000000000000  0.3750000000000000   F   F   F
  0.4754922550675545  0.4114333612345116  0.7076902104221137   T   T   T
  0.1271559178788779  0.0065678435131655  0.6108103977774767   T   T   T
  0.1242361776777106  0.5117659008610937  0.6102446309773237   T   T   T
  0.6242295930631521  0.0070110078906004  0.6111705845942733   T   T   T
  0.6260824726264259  0.5096624182705881  0.6101049370590031   T   T   T
  0.1260695795303512  0.2678477680137688  0.6433687835832355   T   T   T
  0.1225239403016273  0.7711829154383275  0.6499506613369063   T   T   T
  0.6308427594575668  0.2709923373215521  0.6476940470325983   T   T   T
  0.6291014872982166  0.7710998861570937  0.6502736200088702   T   T   T
  0.3750424969424141  0.0860954890466301  0.5265523216014247   T   T   T
  0.3754790676663252  0.5835953468198670  0.5259337334899080   T   T   T
  0.8753986837700746  0.0853674727756343  0.5266733876297424   T   T   T
  0.8749485336012205  0.5842250906290952  0.5261074158919649   T   T   T
  0.3747958146395190  0.3336789699104428  0.5607784526434154   T   T   T
  0.3754227819522561  0.8315409647625851  0.5552547645021744   T   T   T
  0.8749555580723463  0.3344372595906153  0.5583035219773019   T   T   T
  0.8750232876219978  0.8341369630508415  0.5585749254207417   T   T   T
  0.1250000000000000  0.1680566799999994  0.4428820850000008   F   F   F
  0.1250000000000000  0.6680566799999994  0.4428820850000008   F   F   F
  0.6250000000000000  0.1680566799999994  0.4428820850000008   F   F   F
  0.6250000000000000  0.6680566799999994  0.4428820850000008   F   F   F
  0.1250000000000000  0.4152766533333363  0.4737845816666635   F   F   F
  0.1250000000000000  0.9152766533333363  0.4737845816666635   F   F   F
  0.6250000000000000  0.4152766533333363  0.4737845816666635   F   F   F
  0.6250000000000000  0.9152766533333363  0.4737845816666635   F   F   F
  0.3750000000000000  0.2513900133333351  0.3595487516666651   F   F   F
  0.3750000000000000  0.7513900133333351  0.3595487516666651   F   F   F
  0.8750000000000000  0.2513900133333351  0.3595487516666651   F   F   F
  0.8750000000000000  0.7513900133333351  0.3595487516666651   F   F   F
  0.3750000000000000  0.4986099866666649  0.3904512483333349   F   F   F
  0.3750000000000000  0.9986099866666649  0.3904512483333349   F   F   F
  0.8750000000000000  0.4986099866666649  0.3904512483333349   F   F   F
  0.8750000000000000  0.9986099866666649  0.3904512483333349   F   F   F
  0.3731937886489779  0.4725979123199100  0.6887631954638207   T   T   T

  0.00000000E+00  0.00000000E+00  0.00000000E+00
  0.00000000E+00  0.00000000E+00  0.00000000E+00
  0.00000000E+00  0.00000000E+00  0.00000000E+00
  0.00000000E+00  0.00000000E+00  0.00000000E+00
  0.00000000E+00  0.00000000E+00  0.00000000E+00
  0.00000000E+00  0.00000000E+00  0.00000000E+00
  0.00000000E+00  0.00000000E+00  0.00000000E+00
  0.00000000E+00  0.00000000E+00  0.00000000E+00
  0.00000000E+00  0.00000000E+00  0.00000000E+00
  0.00000000E+00  0.00000000E+00  0.00000000E+00
  0.00000000E+00  0.00000000E+00  0.00000000E+00
  0.00000000E+00  0.00000000E+00  0.00000000E+00
  0.00000000E+00  0.00000000E+00  0.00000000E+00
  0.00000000E+00  0.00000000E+00  0.00000000E+00
  0.00000000E+00  0.00000000E+00  0.00000000E+00
  0.00000000E+00  0.00000000E+00  0.00000000E+00
  0.00000000E+00  0.00000000E+00  0.00000000E+00
  0.00000000E+00  0.00000000E+00  0.00000000E+00
  0.00000000E+00  0.00000000E+00  0.00000000E+00
  0.00000000E+00  0.00000000E+00  0.00000000E+00
  0.00000000E+00  0.00000000E+00  0.00000000E+00
  0.00000000E+00  0.00000000E+00  0.00000000E+00
  0.00000000E+00  0.00000000E+00  0.00000000E+00
  0.00000000E+00  0.00000000E+00  0.00000000E+00
  0.00000000E+00  0.00000000E+00  0.00000000E+00
  0.00000000E+00  0.00000000E+00  0.00000000E+00
  0.00000000E+00  0.00000000E+00  0.00000000E+00
  0.00000000E+00  0.00000000E+00  0.00000000E+00
  0.00000000E+00  0.00000000E+00  0.00000000E+00
  0.00000000E+00  0.00000000E+00  0.00000000E+00
  0.00000000E+00  0.00000000E+00  0.00000000E+00
  0.00000000E+00  0.00000000E+00  0.00000000E+00
  0.00000000E+00  0.00000000E+00  0.00000000E+00
  0.00000000E+00  0.00000000E+00  0.00000000E+00
  0.00000000E+00  0.00000000E+00  0.00000000E+00
  0.00000000E+00  0.00000000E+00  0.00000000E+00
  0.00000000E+00  0.00000000E+00  0.00000000E+00
  0.00000000E+00  0.00000000E+00  0.00000000E+00
  0.00000000E+00  0.00000000E+00  0.00000000E+00
  0.00000000E+00  0.00000000E+00  0.00000000E+00
  0.00000000E+00  0.00000000E+00  0.00000000E+00
  0.00000000E+00  0.00000000E+00  0.00000000E+00
  0.00000000E+00  0.00000000E+00  0.00000000E+00
  0.00000000E+00  0.00000000E+00  0.00000000E+00
  0.00000000E+00  0.00000000E+00  0.00000000E+00
  0.00000000E+00  0.00000000E+00  0.00000000E+00
  0.00000000E+00  0.00000000E+00  0.00000000E+00
  0.00000000E+00  0.00000000E+00  0.00000000E+00
  0.00000000E+00  0.00000000E+00  0.00000000E+00
  0.00000000E+00  0.00000000E+00  0.00000000E+00
  0.00000000E+00  0.00000000E+00  0.00000000E+00
  0.00000000E+00  0.00000000E+00  0.00000000E+00
  0.00000000E+00  0.00000000E+00  0.00000000E+00
  0.00000000E+00  0.00000000E+00  0.00000000E+00
  0.00000000E+00  0.00000000E+00  0.00000000E+00
  0.00000000E+00  0.00000000E+00  0.00000000E+00
  0.00000000E+00  0.00000000E+00  0.00000000E+00
  0.00000000E+00  0.00000000E+00  0.00000000E+00
  0.00000000E+00  0.00000000E+00  0.00000000E+00
  0.00000000E+00  0.00000000E+00  0.00000000E+00
  0.00000000E+00  0.00000000E+00  0.00000000E+00
  0.00000000E+00  0.00000000E+00  0.00000000E+00
  0.00000000E+00  0.00000000E+00  0.00000000E+00
  0.00000000E+00  0.00000000E+00  0.00000000E+00
  0.00000000E+00  0.00000000E+00  0.00000000E+00
  0.00000000E+00  0.00000000E+00  0.00000000E+00
