H6 C4 N2
1.0
  15.0000000000000000    0.0000000000000000    0.0000000000000009
  -0.0000000000000009   15.0000000000000000    0.0000000000000009
   0.0000000000000000    0.0000000000000000   15.0000000000000000
H C N
6 4 2
direct
   0.3284507389237070    0.4377303961631669    0.5200198348811640 H
   0.3306733122974335    0.5290535998758625    0.4450797979682989 H
   0.3374818973825064    0.5478503147748605    0.5618875829461406 H
   0.6463078922891748    0.4048293073247065    0.5067887172462060 H
   0.6511663617653035    0.5870709586214045    0.4771755210852505 H
   0.4876312579483457    0.6333538608630427    0.4792591400346889 H
   0.3578121278188048    0.5033790981559604    0.5077441541052025 C
   0.4562300556364881    0.4971052202225354    0.5030171302400805 C
   0.5916937713297615    0.4517698442102057    0.5024174546323612 C
   0.5959565344303812    0.5420337172027299    0.4876418923716439 C
   0.5049652360955698    0.4246449056418325    0.5118382327957365 N
   0.5092917816299819    0.5701866685598912    0.4881625366056004 N
