H  C  N 
 1.0000000000000000
    15.0000000000000000    0.0000000000000000    0.0000000000000009
    -0.0000000000000009   15.0000000000000000    0.0000000000000009
     0.0000000000000000    0.0000000000000000   15.0000000000000000
 H   C   N  
   6   4   2
Direct
  0.3303622671721771  0.4366210445039445  0.5200908241694169
  0.3276460919352833  0.5287150633171462  0.4452809917563472
  0.3344585789244239  0.5475263088358442  0.5621348162825872
  0.6468332647498573  0.4040957741550799  0.5068711678314283
  0.6526049609499948  0.5868635731879198  0.4771277988683361
  0.4893362186128000  0.6344801281038862  0.4790071629109570
  0.3567831180346310  0.5035743830177560  0.5077694353970635
  0.4558525983725533  0.4981837886929456  0.5028616170393454
  0.5922921150422685  0.4514465707777736  0.5024270962970329
  0.5971940996611865  0.5417544898811629  0.4876180071303553
  0.5045833959542830  0.4249821632598751  0.5117917155778510
  0.5097142581379920  0.5707646038828632  0.4880513616516555
