Co16 H18 O33                            
   1.0000000000000000     
     5.6977452034080489    0.0000000000000000    0.0000000000000003
     0.0000000000000015    9.2190899832277964   -0.4407871102770392
     0.0000000000000000    0.0000000000000000   27.6936133766900419
  Co              H               O             
    16    18    33
Selective dynamics
Direct
  0.3700208986451957  0.3848477024739666  0.6290438289249005   T   T   T
  0.3745626913266059  0.8694330138274998  0.6285357588421143   T   T   T
  0.8678628722399514  0.3819228933361790  0.6254622176520106   T   T   T
  0.8689914813826173  0.8713025376785201  0.6253689719373406   T   T   T
  0.1232819350547237  0.4584388553738119  0.5429223771543072   T   T   T
  0.1265679616835325  0.9583704141897169  0.5417414687054471   T   T   T
  0.6228139834939940  0.4589977597252621  0.5428504207790269   T   T   T
  0.6232313383301270  0.9576395108863006  0.5423233449017727   T   T   T
  0.3750000000000000  0.0416666666666643  0.4583333333333357   F   F   F
  0.3750000000000000  0.5416666666666643  0.4583333333333357   F   F   F
  0.8750000000000000  0.0416666666666643  0.4583333333333357   F   F   F
  0.8750000000000000  0.5416666666666643  0.4583333333333357   F   F   F
  0.1250000000000000  0.1250000000000000  0.3750000000000000   F   F   F
  0.1250000000000000  0.6250000000000000  0.3750000000000000   F   F   F
  0.6250000000000000  0.1250000000000000  0.3750000000000000   F   F   F
  0.6250000000000000  0.6250000000000000  0.3750000000000000   F   F   F
  0.1208286426298232  0.1109234114075668  0.6261832113989046   T   T   T
  0.1191954616257340  0.6535286819988163  0.6352409300577595   T   T   T
  0.6249088021310252  0.1639931770359200  0.6334213301897974   T   T   T
  0.6205265563229981  0.6480851530447380  0.6333748804455398   T   T   T
  0.3748445556012358  0.2229901472368670  0.5446323505892737   T   T   T
  0.3735247763883104  0.7101142152729211  0.5401305854669768   T   T   T
  0.8740340618166911  0.1965894280373920  0.5414247658525042   T   T   T
  0.8747313561609796  0.6947301027662003  0.5411231478904629   T   T   T
  0.1250000000000000  0.2916666666666643  0.4583333333333357   F   F   F
  0.1250000000000000  0.7916666666666643  0.4583333333333357   F   F   F
  0.6250000000000000  0.2916666666666643  0.4583333333333357   F   F   F
  0.6250000000000000  0.7916666666666643  0.4583333333333357   F   F   F
  0.3750000000000000  0.3750000000000000  0.3750000000000000   F   F   F
  0.3750000000000000  0.8750000000000000  0.3750000000000000   F   F   F
  0.8750000000000000  0.3750000000000000  0.3750000000000000   F   F   F
  0.8750000000000000  0.8750000000000000  0.3750000000000000   F   F   F
  0.4662442351498796  0.4136032335996386  0.7109236599997407   T   T   T
  0.1426192219313429  0.2791200650643854  0.6799384771899785   T   T   T
  0.1235914748361300  0.0024317650010193  0.6116443580058134   T   T   T
  0.1171188043038888  0.5062494943503673  0.6104254785625683   T   T   T
  0.6212803653721649 -0.0014607347888969  0.6113339965308782   T   T   T
  0.6222189160294219  0.5079622571353736  0.6109307858691024   T   T   T
  0.1163305049446365  0.2547762093434370  0.6448939072207704   T   T   T
  0.1164338609684780  0.7610932733286634  0.6484029954693961   T   T   T
  0.6276208916122533  0.2667278622243553  0.6476920068344333   T   T   T
  0.6251789337927045  0.7582468909473261  0.6474248344074083   T   T   T
  0.3749206901445234  0.0840373336019825  0.5262746868013004   T   T   T
  0.3735043524201934  0.5832383731953807  0.5261474632961900   T   T   T
  0.8749198997594171  0.0847727138235769  0.5267052455179362   T   T   T
  0.8733864856052455  0.5839211465950971  0.5264041408401107   T   T   T
  0.3739936079231901  0.3335367039459601  0.5593649717357224   T   T   T
  0.3746583284687249  0.8306810666205475  0.5549019944413588   T   T   T
  0.8726272811676268  0.3334559285910864  0.5586662869380384   T   T   T
  0.8760252278976723  0.8329320119671303  0.5583191189227673   T   T   T
  0.1250000000000000  0.1680566799999994  0.4428820850000008   F   F   F
  0.1250000000000000  0.6680566799999994  0.4428820850000008   F   F   F
  0.6250000000000000  0.1680566799999994  0.4428820850000008   F   F   F
  0.6250000000000000  0.6680566799999994  0.4428820850000008   F   F   F
  0.1250000000000000  0.4152766533333363  0.4737845816666635   F   F   F
  0.1250000000000000  0.9152766533333363  0.4737845816666635   F   F   F
  0.6250000000000000  0.4152766533333363  0.4737845816666635   F   F   F
  0.6250000000000000  0.9152766533333363  0.4737845816666635   F   F   F
  0.3750000000000000  0.2513900133333351  0.3595487516666651   F   F   F
  0.3750000000000000  0.7513900133333351  0.3595487516666651   F   F   F
  0.8750000000000000  0.2513900133333351  0.3595487516666651   F   F   F
  0.8750000000000000  0.7513900133333351  0.3595487516666651   F   F   F
  0.3750000000000000  0.4986099866666649  0.3904512483333349   F   F   F
  0.3750000000000000  0.9986099866666649  0.3904512483333349   F   F   F
  0.8750000000000000  0.4986099866666649  0.3904512483333349   F   F   F
  0.8750000000000000  0.9986099866666649  0.3904512483333349   F   F   F
  0.3305182680710267  0.4474158004589395  0.6931989733722783   T   T   T

  0.00000000E+00  0.00000000E+00  0.00000000E+00
  0.00000000E+00  0.00000000E+00  0.00000000E+00
  0.00000000E+00  0.00000000E+00  0.00000000E+00
  0.00000000E+00  0.00000000E+00  0.00000000E+00
  0.00000000E+00  0.00000000E+00  0.00000000E+00
  0.00000000E+00  0.00000000E+00  0.00000000E+00
  0.00000000E+00  0.00000000E+00  0.00000000E+00
  0.00000000E+00  0.00000000E+00  0.00000000E+00
  0.00000000E+00  0.00000000E+00  0.00000000E+00
  0.00000000E+00  0.00000000E+00  0.00000000E+00
  0.00000000E+00  0.00000000E+00  0.00000000E+00
  0.00000000E+00  0.00000000E+00  0.00000000E+00
  0.00000000E+00  0.00000000E+00  0.00000000E+00
  0.00000000E+00  0.00000000E+00  0.00000000E+00
  0.00000000E+00  0.00000000E+00  0.00000000E+00
  0.00000000E+00  0.00000000E+00  0.00000000E+00
  0.00000000E+00  0.00000000E+00  0.00000000E+00
  0.00000000E+00  0.00000000E+00  0.00000000E+00
  0.00000000E+00  0.00000000E+00  0.00000000E+00
  0.00000000E+00  0.00000000E+00  0.00000000E+00
  0.00000000E+00  0.00000000E+00  0.00000000E+00
  0.00000000E+00  0.00000000E+00  0.00000000E+00
  0.00000000E+00  0.00000000E+00  0.00000000E+00
  0.00000000E+00  0.00000000E+00  0.00000000E+00
  0.00000000E+00  0.00000000E+00  0.00000000E+00
  0.00000000E+00  0.00000000E+00  0.00000000E+00
  0.00000000E+00  0.00000000E+00  0.00000000E+00
  0.00000000E+00  0.00000000E+00  0.00000000E+00
  0.00000000E+00  0.00000000E+00  0.00000000E+00
  0.00000000E+00  0.00000000E+00  0.00000000E+00
  0.00000000E+00  0.00000000E+00  0.00000000E+00
  0.00000000E+00  0.00000000E+00  0.00000000E+00
  0.00000000E+00  0.00000000E+00  0.00000000E+00
  0.00000000E+00  0.00000000E+00  0.00000000E+00
  0.00000000E+00  0.00000000E+00  0.00000000E+00
  0.00000000E+00  0.00000000E+00  0.00000000E+00
  0.00000000E+00  0.00000000E+00  0.00000000E+00
  0.00000000E+00  0.00000000E+00  0.00000000E+00
  0.00000000E+00  0.00000000E+00  0.00000000E+00
  0.00000000E+00  0.00000000E+00  0.00000000E+00
  0.00000000E+00  0.00000000E+00  0.00000000E+00
  0.00000000E+00  0.00000000E+00  0.00000000E+00
  0.00000000E+00  0.00000000E+00  0.00000000E+00
  0.00000000E+00  0.00000000E+00  0.00000000E+00
  0.00000000E+00  0.00000000E+00  0.00000000E+00
  0.00000000E+00  0.00000000E+00  0.00000000E+00
  0.00000000E+00  0.00000000E+00  0.00000000E+00
  0.00000000E+00  0.00000000E+00  0.00000000E+00
  0.00000000E+00  0.00000000E+00  0.00000000E+00
  0.00000000E+00  0.00000000E+00  0.00000000E+00
  0.00000000E+00  0.00000000E+00  0.00000000E+00
  0.00000000E+00  0.00000000E+00  0.00000000E+00
  0.00000000E+00  0.00000000E+00  0.00000000E+00
  0.00000000E+00  0.00000000E+00  0.00000000E+00
  0.00000000E+00  0.00000000E+00  0.00000000E+00
  0.00000000E+00  0.00000000E+00  0.00000000E+00
  0.00000000E+00  0.00000000E+00  0.00000000E+00
  0.00000000E+00  0.00000000E+00  0.00000000E+00
  0.00000000E+00  0.00000000E+00  0.00000000E+00
  0.00000000E+00  0.00000000E+00  0.00000000E+00
  0.00000000E+00  0.00000000E+00  0.00000000E+00
  0.00000000E+00  0.00000000E+00  0.00000000E+00
  0.00000000E+00  0.00000000E+00  0.00000000E+00
  0.00000000E+00  0.00000000E+00  0.00000000E+00
  0.00000000E+00  0.00000000E+00  0.00000000E+00
  0.00000000E+00  0.00000000E+00  0.00000000E+00
  0.00000000E+00  0.00000000E+00  0.00000000E+00
