ALGO = Normal
AMIX = 0.2
AMIX_MAG = 0.8
BMIX = 0.0001
BMIX_MAG = 0.0001
DIPOL = 0.5 0.5 0.5028
EDIFF = 1e-06
EDIFFG = -0.02
ENCUT = 520.0
IBRION = 1
IDIPOL = 3
ISIF = 2
ISMEAR = 0
ISPIN = 2
ISYM = 0
IVDW = 12
KPAR = 2
LASPH = True
LCHARG = False
LDAU = True
LDAUJ = 0.0 0.0 0.0
LDAUL = 2 -1 -1
LDAUPRINT = 1
LDAUTYPE = 2
LDAUU = 3.32 0.0 0.0
LDIPOL = True
LMAXMIX = 4
LORBIT = 11
LREAL = Auto
LWAVE = False
MAGMOM = 1.0 0.0 1.0 0.0 0.0 0.0 0.0 0.0 0.0 0.0 0.0 0.0 0.0 0.0 0.0 0.0 0.0 0.0 0.0 0.0 0.0 0.0 0.0 0.0 0.0 0.0 0.0 0.0 0.0 0.0 0.0 0.0 0.0 0.0 0.0 0.0 0.0 0.0 0.0 0.0 0.0 0.0 0.0 0.0 0.0 0.0 0.0 0.0 0.0 0.0 0.0 0.0 0.0 0.0 0.0 0.0 0.0 0.0 0.0 0.0 0.0 0.0 0.0 0.0 0.0
NCORE = 8
NELM = 200
NSW = 200
NUPDOWN = 2
PREC = Accurate
SIGMA = 0.05
# forced Co(IV)-oxo: FM Co(IV) pair, NUPDOWN=2
POTIM = 0.2
ADDGRID = .TRUE.
# 2026-08-28 restart (oscillation fix)
