Co16 H16 O33                            
   1.0000000000000000     
     5.6977452034080489    0.0000000000000000    0.0000000000000003
    -0.0000000000000006    9.2190899832277964   -0.4407871102770392
     0.0000000000000000    0.0000000000000000   27.6936133766900419
  Co              H               O             
    16    16    33
Selective dynamics
Direct
  0.3750259902388688  0.3923028136111709  0.6326712467843993   T   T   T
  0.3750989343473090  0.8853044008795143  0.6251377226696829   T   T   T
  0.8750379297740123  0.3800365968358757  0.6265027169054183   T   T   T
  0.8751020793659219  0.8856720567393863  0.6250269467632075   T   T   T
  0.1243648551941151  0.4572444393482713  0.5427798074721212   T   T   T
  0.1263873013702251  0.9608701077472480  0.5423700615499254   T   T   T
  0.6255694100895912  0.4572915884421132  0.5427803185848306   T   T   T
  0.6235396416639034  0.9608348642027779  0.5423435804746429   T   T   T
  0.3750000000000000  0.0416666666666643  0.4583333333333357   F   F   F
  0.3750000000000000  0.5416666666666643  0.4583333333333357   F   F   F
  0.8750000000000000  0.0416666666666643  0.4583333333333357   F   F   F
  0.8750000000000000  0.5416666666666643  0.4583333333333357   F   F   F
  0.1250000000000000  0.1250000000000000  0.3750000000000000   F   F   F
  0.1250000000000000  0.6250000000000000  0.3750000000000000   F   F   F
  0.6250000000000000  0.1250000000000000  0.3750000000000000   F   F   F
  0.6250000000000000  0.6250000000000000  0.3750000000000000   F   F   F
  0.1313506752944747  0.1631531644197687  0.6301513564055824   T   T   T
  0.1244265020204750  0.6697158598447539  0.6350365898306627   T   T   T
  0.6187200972815255  0.1631317538376841  0.6301685335483233   T   T   T
  0.6257885085997485  0.6697004350364181  0.6350132170999183   T   T   T
  0.3750344615513931  0.2165431199212731  0.5445999415595048   T   T   T
  0.3750299217097126  0.6955567877442453  0.5412981040642457   T   T   T
  0.8748959154255042  0.2017869885964527  0.5386838187718452   T   T   T
  0.8748900352171596  0.6988553491529236  0.5416741494948606   T   T   T
  0.1250000000000000  0.2916666666666643  0.4583333333333357   F   F   F
  0.1250000000000000  0.7916666666666643  0.4583333333333357   F   F   F
  0.6250000000000000  0.2916666666666643  0.4583333333333357   F   F   F
  0.6250000000000000  0.7916666666666643  0.4583333333333357   F   F   F
  0.3750000000000000  0.3750000000000000  0.3750000000000000   F   F   F
  0.3750000000000000  0.8750000000000000  0.3750000000000000   F   F   F
  0.8750000000000000  0.3750000000000000  0.3750000000000000   F   F   F
  0.8750000000000000  0.8750000000000000  0.3750000000000000   F   F   F
  0.1258281436398724  0.0121801000555876  0.6101934856731205   T   T   T
  0.1217812623396743  0.5068642937070398  0.6102714329075744   T   T   T
  0.6243593498659968  0.0121611891992454  0.6101968573270932   T   T   T
  0.6282282811351096  0.5069130457063041  0.6102601108425574   T   T   T
  0.1238718190464809  0.2667118595514618  0.6471330393241010   T   T   T
  0.1245854723455122  0.7745925229734049  0.6468978717587921   T   T   T
  0.6261974700745384  0.2667195199056828  0.6471385614681364   T   T   T
  0.6256883204446425  0.7745805158558581  0.6468612907354703   T   T   T
  0.3749667912732965  0.0873021387865601  0.5260524175629546   T   T   T
  0.3747657937871275  0.5845116536475201  0.5267937047080492   T   T   T
  0.8749569952864804  0.0845941580897744  0.5255969334885201   T   T   T
  0.8751420102109344  0.5850078909673757  0.5265475793304427   T   T   T
  0.3750225142149367  0.3323732331667126  0.5608891687677436   T   T   T
  0.3749100971123633  0.8357002364978074  0.5584448564851986   T   T   T
  0.8748878346112657  0.3316424220999265  0.5550754130228637   T   T   T
  0.8749444324054563  0.8346959017955368  0.5583085697577724   T   T   T
  0.1250000000000000  0.1680566799999994  0.4428820850000008   F   F   F
  0.1250000000000000  0.6680566799999994  0.4428820850000008   F   F   F
  0.6250000000000000  0.1680566799999994  0.4428820850000008   F   F   F
  0.6250000000000000  0.6680566799999994  0.4428820850000008   F   F   F
  0.1250000000000000  0.4152766533333363  0.4737845816666635   F   F   F
  0.1250000000000000  0.9152766533333363  0.4737845816666635   F   F   F
  0.6250000000000000  0.4152766533333363  0.4737845816666635   F   F   F
  0.6250000000000000  0.9152766533333363  0.4737845816666635   F   F   F
  0.3750000000000000  0.2513900133333351  0.3595487516666651   F   F   F
  0.3750000000000000  0.7513900133333351  0.3595487516666651   F   F   F
  0.8750000000000000  0.2513900133333351  0.3595487516666651   F   F   F
  0.8750000000000000  0.7513900133333351  0.3595487516666651   F   F   F
  0.3750000000000000  0.4986099866666649  0.3904512483333349   F   F   F
  0.3750000000000000  0.9986099866666649  0.3904512483333349   F   F   F
  0.8750000000000000  0.4986099866666649  0.3904512483333349   F   F   F
  0.8750000000000000  0.9986099866666649  0.3904512483333349   F   F   F
  0.3748265540381174  0.4733382636757310  0.6858363080777894   T   T   T

  0.00000000E+00  0.00000000E+00  0.00000000E+00
  0.00000000E+00  0.00000000E+00  0.00000000E+00
  0.00000000E+00  0.00000000E+00  0.00000000E+00
  0.00000000E+00  0.00000000E+00  0.00000000E+00
  0.00000000E+00  0.00000000E+00  0.00000000E+00
  0.00000000E+00  0.00000000E+00  0.00000000E+00
  0.00000000E+00  0.00000000E+00  0.00000000E+00
  0.00000000E+00  0.00000000E+00  0.00000000E+00
  0.00000000E+00  0.00000000E+00  0.00000000E+00
  0.00000000E+00  0.00000000E+00  0.00000000E+00
  0.00000000E+00  0.00000000E+00  0.00000000E+00
  0.00000000E+00  0.00000000E+00  0.00000000E+00
  0.00000000E+00  0.00000000E+00  0.00000000E+00
  0.00000000E+00  0.00000000E+00  0.00000000E+00
  0.00000000E+00  0.00000000E+00  0.00000000E+00
  0.00000000E+00  0.00000000E+00  0.00000000E+00
  0.00000000E+00  0.00000000E+00  0.00000000E+00
  0.00000000E+00  0.00000000E+00  0.00000000E+00
  0.00000000E+00  0.00000000E+00  0.00000000E+00
  0.00000000E+00  0.00000000E+00  0.00000000E+00
  0.00000000E+00  0.00000000E+00  0.00000000E+00
  0.00000000E+00  0.00000000E+00  0.00000000E+00
  0.00000000E+00  0.00000000E+00  0.00000000E+00
  0.00000000E+00  0.00000000E+00  0.00000000E+00
  0.00000000E+00  0.00000000E+00  0.00000000E+00
  0.00000000E+00  0.00000000E+00  0.00000000E+00
  0.00000000E+00  0.00000000E+00  0.00000000E+00
  0.00000000E+00  0.00000000E+00  0.00000000E+00
  0.00000000E+00  0.00000000E+00  0.00000000E+00
  0.00000000E+00  0.00000000E+00  0.00000000E+00
  0.00000000E+00  0.00000000E+00  0.00000000E+00
  0.00000000E+00  0.00000000E+00  0.00000000E+00
  0.00000000E+00  0.00000000E+00  0.00000000E+00
  0.00000000E+00  0.00000000E+00  0.00000000E+00
  0.00000000E+00  0.00000000E+00  0.00000000E+00
  0.00000000E+00  0.00000000E+00  0.00000000E+00
  0.00000000E+00  0.00000000E+00  0.00000000E+00
  0.00000000E+00  0.00000000E+00  0.00000000E+00
  0.00000000E+00  0.00000000E+00  0.00000000E+00
  0.00000000E+00  0.00000000E+00  0.00000000E+00
  0.00000000E+00  0.00000000E+00  0.00000000E+00
  0.00000000E+00  0.00000000E+00  0.00000000E+00
  0.00000000E+00  0.00000000E+00  0.00000000E+00
  0.00000000E+00  0.00000000E+00  0.00000000E+00
  0.00000000E+00  0.00000000E+00  0.00000000E+00
  0.00000000E+00  0.00000000E+00  0.00000000E+00
  0.00000000E+00  0.00000000E+00  0.00000000E+00
  0.00000000E+00  0.00000000E+00  0.00000000E+00
  0.00000000E+00  0.00000000E+00  0.00000000E+00
  0.00000000E+00  0.00000000E+00  0.00000000E+00
  0.00000000E+00  0.00000000E+00  0.00000000E+00
  0.00000000E+00  0.00000000E+00  0.00000000E+00
  0.00000000E+00  0.00000000E+00  0.00000000E+00
  0.00000000E+00  0.00000000E+00  0.00000000E+00
  0.00000000E+00  0.00000000E+00  0.00000000E+00
  0.00000000E+00  0.00000000E+00  0.00000000E+00
  0.00000000E+00  0.00000000E+00  0.00000000E+00
  0.00000000E+00  0.00000000E+00  0.00000000E+00
  0.00000000E+00  0.00000000E+00  0.00000000E+00
  0.00000000E+00  0.00000000E+00  0.00000000E+00
  0.00000000E+00  0.00000000E+00  0.00000000E+00
  0.00000000E+00  0.00000000E+00  0.00000000E+00
  0.00000000E+00  0.00000000E+00  0.00000000E+00
  0.00000000E+00  0.00000000E+00  0.00000000E+00
  0.00000000E+00  0.00000000E+00  0.00000000E+00
