Ni4 H4 O8
1.0
   5.3863763400000000   -0.0252143000000000    7.4948125200000000
   2.3955221400000002    4.8244331400000000    7.4948125200000000
  -0.0204440600000000   -0.0126071500000000    4.6147493900000001
Ni H O
4 4 8
direct
   0.0000000000000000    0.0000000000000000    0.0000000000000000 Ni
   0.0000000000000000    0.5000000000000000    0.9999999999999999 Ni
   0.5000000000000000    0.0000000000000000    0.9999999999999999 Ni
   0.5000000000000000    0.5000000000000001    0.9999999999999997 Ni
   0.2500000000000001    0.2500000000000000    0.4999999999999999 H
   0.2500000000000001    0.7500000000000001    0.4999999999999997 H
   0.7500000000000001    0.2500000000000001    0.4999999999999999 H
   0.7500000000000001    0.7500000000000001    0.4999999999999998 H
   0.2036462550000000    0.2036462550000000    0.4072925100000000 O
   0.2036462550000000    0.7036462550000000    0.4072925099999998 O
   0.7036462550000001    0.2036462550000000    0.4072925099999998 O
   0.7036462550000001    0.7036462550000000    0.4072925099999994 O
   0.2963537450000000    0.2963537450000000    0.5927074899999998 O
   0.2963537450000000    0.7963537450000002    0.5927074899999997 O
   0.7963537450000001    0.2963537450000000    0.5927074899999997 O
   0.7963537450000001    0.7963537450000001    0.5927074899999994 O
