Ni H  O 
 1.0000000000000000
     5.5351291822769673   -0.0638835212617260    7.5974313697261637
     2.4277465121345125    4.9747137798509362    7.5974314069198110
    -0.0513155438477203   -0.0316460059557452    4.6996305675550705
 Ni  H   O  
   4   4   8
Direct
  0.0000000000000000  0.0000000000000000 -0.0000000000000000
  0.0000000000000000  0.5000000000000000 -0.0000000000000000
  0.5000000000000000  0.0000000000000000 -0.0000000000000000
  0.4999999999999999  0.5000000000000000  0.0000000000000001
  0.2500000000000000  0.2500000000000000  0.4999999999999999
  0.2500000000000000  0.7500000000000000  0.4999999999999999
  0.7499999999999998  0.2500000000000000  0.5000000000000004
  0.7500000000000002  0.7500000000000000  0.4999999999999999
  0.2044695308279104  0.2044695308395401  0.4089677702734306
  0.2044695308279103  0.7044695308395403  0.4089677702734306
  0.7044695308279106  0.2044695308395401  0.4089677702734306
  0.7044695308279105  0.7044695308395403  0.4089677702734306
  0.2955304691720894  0.2955304691604599  0.5910322297265698
  0.2955304691720894  0.7955304691604597  0.5910322297265702
  0.7955304691720895  0.2955304691604599  0.5910322297265699
  0.7955304691720896  0.7955304691604597  0.5910322297265694
