Co Ni H  O 
 1.0000000000000000
     5.5252059674952525   -0.3888410001632052    7.8793120350205399
     2.4468125028180472    4.6005723929233779    7.6503373019347478
     0.0366958954351667   -0.1944617079115750    4.8114848334831208
 Co  Ni  H   O  
   2   2   4   8
Direct
  0.0000000000000000  0.5000000000000000 -0.0000000000000000
  0.5000000000000001  0.5000000000000000 -0.0000000000000001
  0.0000000000000000  0.0000000000000000 -0.0000000000000000
  0.5000000000000000  0.0000000000000000 -0.0000000000000000
  0.2441577933150978  0.2801605098969510  0.4884063145563975
  0.2558422066849023  0.7198394901030490  0.5115936854436023
  0.7441577933150980  0.2801605098969510  0.4884063145563972
  0.7558422066849022  0.7198394901030490  0.5115936854436021
  0.1882136381507754  0.2259084033100804  0.3765265809103979
  0.2088551466749008  0.6982875867595071  0.4176639479747085
  0.6882136381507755  0.2259084033100804  0.3765265809103979
  0.7088551466749010  0.6982875867595071  0.4176639479747086
  0.2911448533250992  0.3017124132404927  0.5823360520252916
  0.3117863618492245  0.7740915966899197  0.6234734190896019
  0.7911448533250992  0.3017124132404927  0.5823360520252917
  0.8117863618492248  0.7740915966899198  0.6234734190896016
