Co Ni H  O 
 1.0000000000000000
     5.4047491842317070   -0.0568863211014199    7.5663786286886472
     2.3754688202428724    4.8550688063905127    7.5663786541079983
    -0.0414953307990806   -0.0255897638331147    4.6736670427957430
 Co  Ni  H   O  
   3   1   4   8
Direct
 -0.0000000000000001  0.5000000000000001  1.0000000000000000
  0.5000000000000002  0.0000000000000000  0.9999999999999997
  0.5000000000000000  0.5000000000000001  0.9999999999999997
  0.0000000000000000  0.0000000000000000  1.0000000000000000
  0.2524173680862555  0.2524173680875663  0.4696845274383604
  0.2622403552411721  0.7377596447577962  0.5000000000047022
  0.7377596447588204  0.2622403552422038  0.4999999999952978
  0.7475826319137446  0.7475826319124338  0.5303154725616389
  0.2113857814011268  0.2113857813973242  0.3790220888028730
  0.2122283583349006  0.6926391198844215  0.4144473777602270
  0.6926391198752706  0.2122283583335351  0.4144473777771737
  0.7039470529965236  0.7039470530018502  0.4034067550377892
  0.2960529470034761  0.2960529469981499  0.5965932449622102
  0.3073608801247291  0.7877716416664651  0.5855526222228263
  0.7877716416650994  0.3073608801155716  0.5855526222397730
  0.7886142185988730  0.7886142186026760  0.6209779111971265
