Co H  O 
 1.0000000000000000
     5.4063198779289996   -0.0234725969664979    7.5275849503716161
     2.4060315279611548    4.8414722326290018    7.5275849539227897
    -0.0190006150200617   -0.0117169480276828    4.6338348016937676
 Co  H   O  
   4   4   8
Direct
  0.0000000000000000  0.0000000000000000 -0.0000000000000000
 -0.0000000000000001  0.5000000000000000  0.0000000000000001
  0.4999999999999999 -0.0000000000000000  0.0000000000000001
  0.5000000000000000  0.5000000000000000 -0.0000000000000000
  0.2500000000000001  0.2500000000000000  0.4999999999999999
  0.2500000000000000  0.7500000000000000  0.4999999999999997
  0.7499999999999999  0.2500000000000000  0.5000000000000002
  0.7500000000000000  0.7500000000000000  0.5000000000000002
  0.2037371399214392  0.2037371399216159  0.4074554011833122
  0.2037371399214391  0.7037371399216159  0.4074554011833125
  0.7037371399214394  0.2037371399216159  0.4074554011833124
  0.7037371399214395  0.7037371399216159  0.4074554011833121
  0.2962628600785608  0.2962628600783840  0.5925445988166878
  0.2962628600785607  0.7962628600783841  0.5925445988166876
  0.7962628600785606  0.2962628600783841  0.5925445988166878
  0.7962628600785604  0.7962628600783841  0.5925445988166881
