Co6 O8                                  
   1.0000000000000000     
     1.6543190000505594    4.6703259587103583    2.8582161349410393
     0.0000127955187122    0.0002169156394571    5.7175092113348134
     4.9545481300941869    0.0028281419663318    2.8580849267252977
  Co              O             
     6     8
Direct
  0.6250000000000000  0.6250000000000000  0.6250000000000000
  0.6250000000000000  0.6250000000000000  0.1250000000000000
  0.1250000000000000  0.6250000000000000  0.6250000000000000
  0.2500084159852949  0.2499858874204857  0.2500128341937605
  0.9999915840147053  0.0000151125795189  0.9999861658062420
  0.6250000000000000  0.1250000000000000  0.6250000000000000
  0.3886538070308939  0.8343294564145568  0.3886753588884480
  0.4157620310651119  0.8611847835365714  0.8617675381654419
  0.3882498364499096  0.3888443878015222  0.8342369415143002
  0.8342379689348880  0.3888142164634238  0.3882314618345608
  0.3888238480633404  0.3880973904473467  0.3888174410970398
  0.8617501635500903  0.8611566121984824  0.4157630584856998
  0.8613461929691061  0.4156715435854406  0.8613246411115518
  0.8611761519366595  0.8619026095526534  0.8611825589029605

  0.00000000E+00  0.00000000E+00  0.00000000E+00
  0.00000000E+00  0.00000000E+00  0.00000000E+00
  0.00000000E+00  0.00000000E+00  0.00000000E+00
  0.00000000E+00  0.00000000E+00  0.00000000E+00
  0.00000000E+00  0.00000000E+00  0.00000000E+00
  0.00000000E+00  0.00000000E+00  0.00000000E+00
  0.00000000E+00  0.00000000E+00  0.00000000E+00
  0.00000000E+00  0.00000000E+00  0.00000000E+00
  0.00000000E+00  0.00000000E+00  0.00000000E+00
  0.00000000E+00  0.00000000E+00  0.00000000E+00
  0.00000000E+00  0.00000000E+00  0.00000000E+00
  0.00000000E+00  0.00000000E+00  0.00000000E+00
  0.00000000E+00  0.00000000E+00  0.00000000E+00
  0.00000000E+00  0.00000000E+00  0.00000000E+00
