Co1 H1 O2                               
   1.0000000000000000     
     2.7032165457045658   -0.0117335371879324    3.7639337349766699
     1.2030436432615497    2.4207854588910043    3.7639337367828527
    -0.0190275183421041   -0.0117335396544745    4.6340294242645061
  Co              H               O             
     1     1     2
Direct
  0.0000000000000000  0.0000000000000000  0.0000000000000000
  0.5000000000000000  0.5000000000000000  0.5000000000000000
  0.4074608719231340  0.4074608719234546  0.4074608719272311
  0.5925391280768660  0.5925391280765454  0.5925391280727688

  0.00000000E+00  0.00000000E+00  0.00000000E+00
  0.00000000E+00  0.00000000E+00  0.00000000E+00
  0.00000000E+00  0.00000000E+00  0.00000000E+00
  0.00000000E+00  0.00000000E+00  0.00000000E+00
