Co16 H17 O32                            
   1.0000000000000000     
     5.6977452034080489    0.0000000000000000    0.0000000000000003
     0.0000000000000015    9.2190899832277964   -0.4407871102770392
     0.0000000000000000    0.0000000000000000   27.6936133766900419
  Co              H               O             
    16    17    32
Selective dynamics
Direct
  0.3708073803603336  0.3788908076515781  0.6302265066696882   T   T   T
  0.3715764381193679  0.8672440354444242  0.6237026528030256   T   T   T
  0.8778483904089364  0.3755701995050523  0.6257688236611009   T   T   T
  0.8791742940053054  0.8683250699632352  0.6237454861307582   T   T   T
  0.1231460047527188  0.4558496768126343  0.5424236345467816   T   T   T
  0.1274133337725905  0.9572167348775475  0.5420589926437980   T   T   T
  0.6251297549887009  0.4554715212657099  0.5427011515711968   T   T   T
  0.6233945730123086  0.9568510946876596  0.5412397471560009   T   T   T
  0.3750000000000000  0.0416666666666643  0.4583333333333357   F   F   F
  0.3750000000000000  0.5416666666666643  0.4583333333333357   F   F   F
  0.8750000000000000  0.0416666666666643  0.4583333333333357   F   F   F
  0.8750000000000000  0.5416666666666643  0.4583333333333357   F   F   F
  0.1250000000000000  0.1250000000000000  0.3750000000000000   F   F   F
  0.1250000000000000  0.6250000000000000  0.3750000000000000   F   F   F
  0.6250000000000000  0.1250000000000000  0.3750000000000000   F   F   F
  0.6250000000000000  0.6250000000000000  0.3750000000000000   F   F   F
  0.1202738472397576  0.1615308730518812  0.6339964831507999   T   T   T
  0.1201530083078067  0.6452445272926024  0.6298614217613285   T   T   T
  0.6227930861641134  0.1036819452348652  0.6243203566894104   T   T   T
  0.6296441854589482  0.6467685879285634  0.6293897084973532   T   T   T
  0.3761401602084237  0.2252006411177110  0.5396517563422952   T   T   T
  0.3743762888322079  0.6916447402739613  0.5397734911817892   T   T   T
  0.8733466801231544  0.1954233968748925  0.5406850461230194   T   T   T
  0.8757685439605059  0.6929122345535161  0.5403573728152479   T   T   T
  0.1250000000000000  0.2916666666666643  0.4583333333333357   F   F   F
  0.1250000000000000  0.7916666666666643  0.4583333333333357   F   F   F
  0.6250000000000000  0.2916666666666643  0.4583333333333357   F   F   F
  0.6250000000000000  0.7916666666666643  0.4583333333333357   F   F   F
  0.3750000000000000  0.3750000000000000  0.3750000000000000   F   F   F
  0.3750000000000000  0.8750000000000000  0.3750000000000000   F   F   F
  0.8750000000000000  0.3750000000000000  0.3750000000000000   F   F   F
  0.8750000000000000  0.8750000000000000  0.3750000000000000   F   F   F
  0.6456284476154188  0.2350684421656624  0.6826422376657801   T   T   T
  0.1263395965919696  0.9974313960385345  0.6114637353042808   T   T   T
  0.1189044331157229  0.5019056201900213  0.6102073707062945   T   T   T
  0.6238048198746002  0.9982355554187258  0.6101984788756557   T   T   T
  0.6278656028940152  0.4985795324659094  0.6106614122623326   T   T   T
  0.1140699492117342  0.2624112641568053  0.6502584070660595   T   T   T
  0.1246695221581010  0.7544659745230347  0.6437808528360941   T   T   T
  0.6293231065639552  0.2499630109993877  0.6481779170536109   T   T   T
  0.6262951752009286  0.7559006802702455  0.6426125340245753   T   T   T
  0.3757636921540232  0.0818412578609446  0.5256993432956589   T   T   T
  0.3740398827840148  0.5814237541321117  0.5264584722528883   T   T   T
  0.8751555283384086  0.0825028855798901  0.5262468722305746   T   T   T
  0.8746174708526546  0.5821470484513303  0.5266153164235584   T   T   T
  0.3742548301075593  0.3318494849816730  0.5549565969634042   T   T   T
  0.3759384453327222  0.8320102460039922  0.5564215906500544   T   T   T
  0.8737895784580169  0.3298302056642212  0.5575153720195652   T   T   T
  0.8749747748989525  0.8320118457770451  0.5567458642247067   T   T   T
  0.1250000000000000  0.1680566799999994  0.4428820850000008   F   F   F
  0.1250000000000000  0.6680566799999994  0.4428820850000008   F   F   F
  0.6250000000000000  0.1680566799999994  0.4428820850000008   F   F   F
  0.6250000000000000  0.6680566799999994  0.4428820850000008   F   F   F
  0.1250000000000000  0.4152766533333363  0.4737845816666635   F   F   F
  0.1250000000000000  0.9152766533333363  0.4737845816666635   F   F   F
  0.6250000000000000  0.4152766533333363  0.4737845816666635   F   F   F
  0.6250000000000000  0.9152766533333363  0.4737845816666635   F   F   F
  0.3750000000000000  0.2513900133333351  0.3595487516666651   F   F   F
  0.3750000000000000  0.7513900133333351  0.3595487516666651   F   F   F
  0.8750000000000000  0.2513900133333351  0.3595487516666651   F   F   F
  0.8750000000000000  0.7513900133333351  0.3595487516666651   F   F   F
  0.3750000000000000  0.4986099866666649  0.3904512483333349   F   F   F
  0.3750000000000000  0.9986099866666649  0.3904512483333349   F   F   F
  0.8750000000000000  0.4986099866666649  0.3904512483333349   F   F   F
  0.8750000000000000  0.9986099866666649  0.3904512483333349   F   F   F

  0.00000000E+00  0.00000000E+00  0.00000000E+00
  0.00000000E+00  0.00000000E+00  0.00000000E+00
  0.00000000E+00  0.00000000E+00  0.00000000E+00
  0.00000000E+00  0.00000000E+00  0.00000000E+00
  0.00000000E+00  0.00000000E+00  0.00000000E+00
  0.00000000E+00  0.00000000E+00  0.00000000E+00
  0.00000000E+00  0.00000000E+00  0.00000000E+00
  0.00000000E+00  0.00000000E+00  0.00000000E+00
  0.00000000E+00  0.00000000E+00  0.00000000E+00
  0.00000000E+00  0.00000000E+00  0.00000000E+00
  0.00000000E+00  0.00000000E+00  0.00000000E+00
  0.00000000E+00  0.00000000E+00  0.00000000E+00
  0.00000000E+00  0.00000000E+00  0.00000000E+00
  0.00000000E+00  0.00000000E+00  0.00000000E+00
  0.00000000E+00  0.00000000E+00  0.00000000E+00
  0.00000000E+00  0.00000000E+00  0.00000000E+00
  0.00000000E+00  0.00000000E+00  0.00000000E+00
  0.00000000E+00  0.00000000E+00  0.00000000E+00
  0.00000000E+00  0.00000000E+00  0.00000000E+00
  0.00000000E+00  0.00000000E+00  0.00000000E+00
  0.00000000E+00  0.00000000E+00  0.00000000E+00
  0.00000000E+00  0.00000000E+00  0.00000000E+00
  0.00000000E+00  0.00000000E+00  0.00000000E+00
  0.00000000E+00  0.00000000E+00  0.00000000E+00
  0.00000000E+00  0.00000000E+00  0.00000000E+00
  0.00000000E+00  0.00000000E+00  0.00000000E+00
  0.00000000E+00  0.00000000E+00  0.00000000E+00
  0.00000000E+00  0.00000000E+00  0.00000000E+00
  0.00000000E+00  0.00000000E+00  0.00000000E+00
  0.00000000E+00  0.00000000E+00  0.00000000E+00
  0.00000000E+00  0.00000000E+00  0.00000000E+00
  0.00000000E+00  0.00000000E+00  0.00000000E+00
  0.00000000E+00  0.00000000E+00  0.00000000E+00
  0.00000000E+00  0.00000000E+00  0.00000000E+00
  0.00000000E+00  0.00000000E+00  0.00000000E+00
  0.00000000E+00  0.00000000E+00  0.00000000E+00
  0.00000000E+00  0.00000000E+00  0.00000000E+00
  0.00000000E+00  0.00000000E+00  0.00000000E+00
  0.00000000E+00  0.00000000E+00  0.00000000E+00
  0.00000000E+00  0.00000000E+00  0.00000000E+00
  0.00000000E+00  0.00000000E+00  0.00000000E+00
  0.00000000E+00  0.00000000E+00  0.00000000E+00
  0.00000000E+00  0.00000000E+00  0.00000000E+00
  0.00000000E+00  0.00000000E+00  0.00000000E+00
  0.00000000E+00  0.00000000E+00  0.00000000E+00
  0.00000000E+00  0.00000000E+00  0.00000000E+00
  0.00000000E+00  0.00000000E+00  0.00000000E+00
  0.00000000E+00  0.00000000E+00  0.00000000E+00
  0.00000000E+00  0.00000000E+00  0.00000000E+00
  0.00000000E+00  0.00000000E+00  0.00000000E+00
  0.00000000E+00  0.00000000E+00  0.00000000E+00
  0.00000000E+00  0.00000000E+00  0.00000000E+00
  0.00000000E+00  0.00000000E+00  0.00000000E+00
  0.00000000E+00  0.00000000E+00  0.00000000E+00
  0.00000000E+00  0.00000000E+00  0.00000000E+00
  0.00000000E+00  0.00000000E+00  0.00000000E+00
  0.00000000E+00  0.00000000E+00  0.00000000E+00
  0.00000000E+00  0.00000000E+00  0.00000000E+00
  0.00000000E+00  0.00000000E+00  0.00000000E+00
  0.00000000E+00  0.00000000E+00  0.00000000E+00
  0.00000000E+00  0.00000000E+00  0.00000000E+00
  0.00000000E+00  0.00000000E+00  0.00000000E+00
  0.00000000E+00  0.00000000E+00  0.00000000E+00
  0.00000000E+00  0.00000000E+00  0.00000000E+00
  0.00000000E+00  0.00000000E+00  0.00000000E+00
